DMC-ICE13 ice IV; Cartesian 1x1x1 supercell
1.0
7.781780160302000 0.124696954091000 0.159032926490000
2.766010328338000 7.274671407731000 0.159032935415000
2.823962671370000 1.981034073860000 7.017194098954000
H O
32 16
Cartesian
7.300011330030438 7.721652189439383 6.405487212472605
8.353145553389826 8.603171245885385 5.551761480916457
3.513558887075504 2.156045255155059 4.810467846266175
7.859214734121380 6.607863845664465 4.793335269306230
9.925772574028775 5.318394224553871 7.065683987359413
6.020766056492114 1.542026521937973 0.899069565148933
10.554106388131837 3.619983599596564 5.379545488720354
8.956978343641236 4.938575578431340 5.879875516233852
8.092133981577435 4.126228027047390 1.870948445839804
7.085161499174301 5.279050004498866 1.460903716381156
11.588142070581974 7.706279579901961 7.114048494997077
9.216925606587351 7.847202343682138 2.238558233795609
7.012833677549014 7.510489909206644 2.043164437479764
5.519595585740303 2.830194789058151 2.543097760323147
11.001805422100041 6.545836362797952 3.421140823882451
3.185900838725837 5.269382054496485 1.285384865231277
9.508503931378034 6.044221181321568 3.338263890347901
4.943249566129811 5.767578407955401 4.793981916579614
5.825486565525564 6.820291103866850 2.896890168217060
4.539160453156860 7.257072152200684 4.963634889149937
6.037848534228139 5.407630905414051 6.770704953008572
4.448910060253872 4.382429148757339 1.455037838509750
6.653970290340483 3.286371553665437 5.588122355797799
7.419161553929940 2.551909795214846 4.407666609458120
11.225833336048346 8.916870787421706 6.210727751961591
5.057895413625962 4.174236376401907 6.687827993104946
9.475256794135257 2.957308028113017 3.557086921397549
4.504613969606921 3.582930097915064 3.446418513998660
8.788360691747034 2.175645017778196 2.371278465616999
2.202535372652121 0.450542417818120 1.125705277573221
0.744496610923614 0.460641022054757 0.504230701935832
7.372423042436621 5.233450113787866 4.171860682365735
7.510621452742761 8.074758615941288 5.498620987948650
9.558923996783353 4.541682931771098 6.561771388496723
7.737112712613078 4.632726874541501 1.093180953560728
5.742211604993728 1.204092160106626 1.789215815250458
10.231331945808174 6.449936149950875 2.795562428240971
4.690716833839535 6.558105141492701 4.253946976587753
3.843265819428412 4.762850094288477 0.745349916776391
7.006591983623676 2.405015239538526 5.297812879905077
5.685421797029448 4.715806592586004 6.145126571960557
3.127740129406673 2.989062948695552 4.442745097297543
8.620057240776100 2.876740925247323 3.053174328608466
6.229195381574137 6.898134152513625 1.990023923563919
1.457281402922400 1.050332705670070 0.804741606698193
5.243280442098034 3.743835011671082 2.806146289331676
11.990866173939944 8.346069900376399 6.473776269794915
8.169520582504854 5.702954066035362 4.472371587491319
