&GLOBAL
  PRINT_LEVEL LOW
  PROJECT pyrazole_GXTB_gamma_cell_opt
  RUN_TYPE CELL_OPT
&END GLOBAL

&FORCE_EVAL
  METHOD Quickstep
  STRESS_TENSOR ANALYTICAL
  &DFT
    &QS
      EPS_DEFAULT 1.0E-12
      METHOD xTB
      &XTB
        GFN_TYPE TBLITE
        SCC_MIXER TBLITE
        &TBLITE
          METHOD GXTB
          ACCURACY 0.1
        &END TBLITE
      &END XTB
    &END QS
    &SCF
      EPS_SCF 1.0E-9
      MAX_SCF 300
      SCF_GUESS MOPAC
      &MIXING
        METHOD DIRECT_P_MIXING
        ALPHA 0.2
      &END MIXING
    &END SCF
  &END DFT
  &SUBSYS
    &CELL
      CANONICALIZE TRUE
      PERIODIC XYZ
      A 8.190000000000 0.000000000000 0.000000000000
      B 0.000000000000 12.588000000000 0.000000000000
      C 0.000000000000 0.000000000000 6.773000000000
    &END CELL
    &COORD
      SCALED
      C   0.298180000000  0.058870000000  0.384350000000
      C   0.798180000000  0.558870000000  0.115650000000
      C   0.298180000000  0.441130000000  0.884350000000
      C   0.798180000000  0.941130000000  0.615650000000
      C   0.726860000000  0.186560000000  0.928850000000
      C   0.226860000000  0.686560000000  0.571150000000
      C   0.726860000000  0.313440000000  0.428850000000
      C   0.226860000000  0.813440000000  0.071150000000
      C   0.399060000000  0.117100000000  0.508710000000
      C   0.899060000000  0.617100000000  0.991290000000
      C   0.399060000000  0.382900000000  0.008710000000
      C   0.899060000000  0.882900000000  0.491290000000
      C   0.621200000000  0.109670000000  0.001800000000
      C   0.121200000000  0.609670000000  0.498200000000
      C   0.621200000000  0.390330000000  0.501800000000
      C   0.121200000000  0.890330000000  0.998200000000
      C   0.303240000000  0.198220000000  0.578240000000
      C   0.803240000000  0.698220000000  0.921760000000
      C   0.303240000000  0.301780000000  0.078240000000
      C   0.803240000000  0.801780000000  0.421760000000
      C   0.711470000000  0.053340000000  0.136380000000
      C   0.211470000000  0.553340000000  0.363620000000
      C   0.711470000000  0.446660000000  0.636380000000
      C   0.211470000000  0.946660000000  0.863620000000
      H   0.061250000000  0.218390000000  0.527980000000
      H   0.561250000000  0.718390000000  0.972020000000
      H   0.061250000000  0.281610000000  0.027980000000
      H   0.561250000000  0.781610000000  0.472020000000
      H   0.942340000000  0.086110000000  0.225310000000
      H   0.442340000000  0.586110000000  0.274690000000
      H   0.942340000000  0.413890000000  0.725310000000
      H   0.442340000000  0.913890000000  0.774690000000
      H   0.318080000000  0.256510000000  0.685710000000
      H   0.818080000000  0.756510000000  0.814290000000
      H   0.318080000000  0.243490000000  0.185710000000
      H   0.818080000000  0.743490000000  0.314290000000
      H   0.684310000000  0.994840000000  0.239830000000
      H   0.184310000000  0.494840000000  0.260170000000
      H   0.684310000000  0.505160000000  0.739830000000
      H   0.184310000000  0.005160000000  0.760170000000
      H   0.507810000000  0.100420000000  0.536900000000
      H   0.007810000000  0.600420000000  0.963100000000
      H   0.507810000000  0.399580000000  0.036900000000
      H   0.007810000000  0.899580000000  0.463100000000
      H   0.511870000000  0.102120000000  0.964710000000
      H   0.011870000000  0.602120000000  0.535290000000
      H   0.511870000000  0.397880000000  0.464710000000
      H   0.011870000000  0.897880000000  0.035290000000
      H   0.320780000000  0.997740000000  0.321640000000
      H   0.820780000000  0.497740000000  0.178360000000
      H   0.320780000000  0.502260000000  0.821640000000
      H   0.820780000000  0.002260000000  0.678360000000
      H   0.704310000000  0.239620000000  0.844530000000
      H   0.204310000000  0.739620000000  0.655470000000
      H   0.704310000000  0.260380000000  0.344530000000
      H   0.204310000000  0.760380000000  0.155470000000
      N   0.155740000000  0.184340000000  0.497840000000
      N   0.655740000000  0.684340000000  0.002160000000
      N   0.155740000000  0.315660000000  0.997840000000
      N   0.655740000000  0.815660000000  0.502160000000
      N   0.859380000000  0.098160000000  0.139260000000
      N   0.359380000000  0.598160000000  0.360740000000
      N   0.859380000000  0.401840000000  0.639260000000
      N   0.359380000000  0.901840000000  0.860740000000
      N   0.148060000000  0.098670000000  0.377740000000
      N   0.648060000000  0.598670000000  0.122260000000
      N   0.148060000000  0.401330000000  0.877740000000
      N   0.648060000000  0.901330000000  0.622260000000
      N   0.873020000000  0.181050000000  0.013290000000
      N   0.373020000000  0.681050000000  0.486710000000
      N   0.873020000000  0.318950000000  0.513290000000
      N   0.373020000000  0.818950000000  0.986710000000
    &END COORD
  &END SUBSYS
&END FORCE_EVAL

&MOTION
  &CELL_OPT
    OPTIMIZER CG
    MAX_ITER 800
    EXTERNAL_PRESSURE 0.0
    KEEP_ANGLES T
    &CG
      &LINE_SEARCH
        TYPE 2PNT
      &END LINE_SEARCH
    &END CG
  &END CELL_OPT
&END MOTION
