DMC-ICE13 ice II; Cartesian 1x1x1 supercell
1.0
7.123339180000000 0.000000000000000 -3.041154150000000
-4.605065820000000 5.434641840000000 -3.041154150000000
0.000000000000000 0.000000000000000 7.745358940000000
H O
24 12
Cartesian
6.417944000000000 10.248042999999999 8.693522000000000
6.623366000000000 11.303845000000001 9.806830000000000
12.768371000000000 7.403543000000000 12.051133000000000
13.091172000000000 7.319880000000000 13.594135000000000
10.646870000000000 6.138815000000000 15.718164000000000
11.934880000000000 6.978175000000000 15.899630999999999
11.270740999999999 9.144830000000001 8.628221999999999
12.582812000000001 9.337194000000000 7.771747000000000
14.802765000000001 6.708601000000000 7.562427000000000
14.894140000000000 8.233870000000000 7.314282000000000
9.024283000000000 9.127933000000001 12.084565000000000
7.961228000000000 10.253330999999999 11.775600000000001
15.710703000000001 7.055802000000000 13.206108000000000
15.505281000000000 6.000000000000000 12.092800000000000
9.360275000000000 9.900302999999999 9.848497000000000
9.037475000000001 9.983966000000001 8.305495000000001
11.481776999999999 11.165030000000000 6.181465000000000
10.193766000000000 10.325670000000001 6.000000000000000
10.857906000000000 8.159015999999999 13.271407999999999
9.545835000000000 7.966651000000000 14.127882000000000
7.325882000000000 10.595243999999999 14.337203000000001
7.234507000000000 9.069974999999999 14.585348000000000
13.104364000000000 8.175912000000000 9.815064000000000
14.167419000000001 7.050514000000000 10.124029999999999
6.000000000000000 10.583874000000000 9.532840999999999
12.346223999999999 7.289505000000000 12.943956000000000
11.625491000000000 6.037128000000000 15.872685000000001
12.164871000000000 8.749098000000000 8.448549999999999
14.666007000000000 7.389451000000000 6.848524000000000
8.513522999999999 9.554169000000000 11.345784999999999
16.128647000000001 6.719971000000000 12.366789000000001
9.782423000000000 10.014341000000000 8.955674000000000
10.503155000000000 11.266717000000000 6.026945000000000
9.963775999999999 8.554748000000000 13.451079000000000
7.462640000000000 9.914394000000000 15.051105000000000
13.615124000000000 7.749676000000000 10.553845000000001
