# DMC13_GXTB_PROTOCOL dmc13-gxtb-spglib-reduced-v1
&GLOBAL
  PRINT_LEVEL LOW
  PROJECT ice_VI_GXTB_k333
  RUN_TYPE ENERGY
&END GLOBAL

&FORCE_EVAL
  METHOD Quickstep
  &DFT
    &QS
      EPS_DEFAULT 1.0E-12
      METHOD xTB
      &XTB
        GFN_TYPE TBLITE
        &TBLITE
          METHOD GXTB
          ACCURACY 0.1
        &END TBLITE
        SCC_MIXER TBLITE
        &TBLITE_MIXER
          ITERATIONS 300
        &END TBLITE_MIXER
      &END XTB
    &END QS
    &KPOINTS
      SCHEME MACDONALD 3 3 3 0.0 0.0 0.0
      SYMMETRY T
      FULL_GRID F
      SYMMETRY_BACKEND SPGLIB
      SYMMETRY_REDUCTION_METHOD SPGLIB
    &END KPOINTS
    &SCF
      EPS_SCF 1.0E-9
      MAX_SCF 300
      SCF_GUESS MOPAC
      &MIXING
        METHOD DIRECT_P_MIXING
        ALPHA 0.2
      &END MIXING
      &PRINT
        &RESTART OFF
        &END RESTART
      &END PRINT
    &END SCF
  &END DFT
  &SUBSYS
    &CELL
      CANONICALIZE TRUE
      PERIODIC XYZ
      A 6.227032397455 -0.016392787397 0.004045418517
      B -0.050959261829 6.227818521324 0.011953773463
      C 0.034161701797 -0.019756844674 5.826899309405
    &END CELL
    &COORD
      SCALED
      H   0.437125368235  0.243380870404  0.004318140164
      H   0.522087205282  0.743984883460  0.982731235225
      H   0.027410336213  0.238481593577  0.005805626460
      H   0.931816157627  0.748835949907  0.981224300134
      H   0.226348619099  0.360701888549  0.343643279874
      H   0.732825221743  0.626649183116  0.643401785653
      H   0.229737091266  0.113926886318  0.338863115955
      H   0.729464164934  0.873428899058  0.648174322306
      H   0.234403822373  0.669914164126  0.619109487584
      H   0.724817459757  0.317428358763  0.367923813635
      H   0.660456306186  0.246382050597  0.865390908096
      H   0.298769588265  0.740956227419  0.121684094676
      H   0.349766463024  0.452360236414  0.692648618162
      H   0.609474861620  0.534997771914  0.294395233723
      H   0.355477679606  0.036662337768  0.693990006537
      H   0.603749725425  0.950677435030  0.293033625045
      H   0.109446068456  0.026898656587  0.697802091529
      H   0.849781064151  0.960452667905  0.289223014372
      H   0.022149035980  0.356126277555  0.770140413145
      H   0.937064225048  0.631202665492  0.216891909338
      O   0.229942189965  0.238644688475  0.234001327955
      O   0.729207760776  0.748710465628  0.753035927873
      O   0.224538130959  0.510933346161  0.611055611243
      O   0.734699944799  0.476408179323  0.375982513406
      O   0.233644716195  0.960266745408  0.619458665029
      O   0.725578265010  0.027090757042  0.367553403414
      O   0.950634106467  0.238341356364  0.857250195748
      O   0.008568893847  0.749001002719  0.129790163223
      O   0.501945075967  0.245914394478  0.849021295714
      O   0.457280451725  0.741420060441  0.138035874781
    &END COORD
  &END SUBSYS
&END FORCE_EVAL
