DMC-ICE13 ice VIII; Cartesian 3x3x3 supercell
1.0
14.548396109999999 0.000000000000000 0.000000000000000
0.000000000000000 14.548396109999999 0.000000000000000
0.000000000000000 0.000000000000000 21.169541370000001
H O
432 216
Cartesian
6.781516750000000 7.563033500000000 6.966619500000000
6.781516750000000 7.563033500000000 14.023133290000001
6.781516750000000 7.563033500000000 21.079647080000001
6.781516750000000 12.412498870000000 6.966619500000000
6.781516750000000 12.412498870000000 14.023133290000001
6.781516750000000 12.412498870000000 21.079647080000001
6.781516750000000 17.261964240000001 6.966619500000000
6.781516750000000 17.261964240000001 14.023133290000001
6.781516750000000 17.261964240000001 21.079647080000001
11.630982119999999 7.563033500000000 6.966619500000000
11.630982119999999 7.563033500000000 14.023133290000001
11.630982119999999 7.563033500000000 21.079647080000001
11.630982119999999 12.412498870000000 6.966619500000000
11.630982119999999 12.412498870000000 14.023133290000001
11.630982119999999 12.412498870000000 21.079647080000001
11.630982119999999 17.261964240000001 6.966619500000000
11.630982119999999 17.261964240000001 14.023133290000001
11.630982119999999 17.261964240000001 21.079647080000001
16.480447490000000 7.563033500000000 6.966619500000000
16.480447490000000 7.563033500000000 14.023133290000001
16.480447490000000 7.563033500000000 21.079647080000001
16.480447490000000 12.412498870000000 6.966619500000000
16.480447490000000 12.412498870000000 14.023133290000001
16.480447490000000 12.412498870000000 21.079647080000001
16.480447490000000 17.261964240000001 6.966619500000000
16.480447490000000 17.261964240000001 14.023133290000001
16.480447490000000 17.261964240000001 21.079647080000001
9.206249250000001 9.987766000000001 10.494876500000000
9.206249250000001 9.987766000000001 17.551390290000001
9.206249250000001 9.987766000000001 24.607904080000001
9.206249250000001 14.837231370000001 10.494876500000000
9.206249250000001 14.837231370000001 17.551390290000001
9.206249250000001 14.837231370000001 24.607904080000001
9.206249250000001 19.686696740000002 10.494876500000000
9.206249250000001 19.686696740000002 17.551390290000001
9.206249250000001 19.686696740000002 24.607904080000001
14.055714620000000 9.987766000000001 10.494876500000000
14.055714620000000 9.987766000000001 17.551390290000001
14.055714620000000 9.987766000000001 24.607904080000001
14.055714620000000 14.837231370000001 10.494876500000000
14.055714620000000 14.837231370000001 17.551390290000001
14.055714620000000 14.837231370000001 24.607904080000001
14.055714620000000 19.686696740000002 10.494876500000000
14.055714620000000 19.686696740000002 17.551390290000001
14.055714620000000 19.686696740000002 24.607904080000001
18.905179990000001 9.987766000000001 10.494876500000000
18.905179990000001 9.987766000000001 17.551390290000001
18.905179990000001 9.987766000000001 24.607904080000001
18.905179990000001 14.837231370000001 10.494876500000000
18.905179990000001 14.837231370000001 17.551390290000001
18.905179990000001 14.837231370000001 24.607904080000001
18.905179990000001 19.686696740000002 10.494876500000000
18.905179990000001 19.686696740000002 17.551390290000001
18.905179990000001 19.686696740000002 24.607904080000001
6.000000000000000 9.206249250000001 8.730748000000000
6.000000000000000 9.206249250000001 15.787261790000001
6.000000000000000 9.206249250000001 22.843775579999999
6.000000000000000 14.055714620000000 8.730748000000000
6.000000000000000 14.055714620000000 15.787261790000001
6.000000000000000 14.055714620000000 22.843775579999999
6.000000000000000 18.905179990000001 8.730748000000000
6.000000000000000 18.905179990000001 15.787261790000001
6.000000000000000 18.905179990000001 22.843775579999999
10.849465370000001 9.206249250000001 8.730748000000000
10.849465370000001 9.206249250000001 15.787261790000001
10.849465370000001 9.206249250000001 22.843775579999999
10.849465370000001 14.055714620000000 8.730748000000000
10.849465370000001 14.055714620000000 15.787261790000001
10.849465370000001 14.055714620000000 22.843775579999999
10.849465370000001 18.905179990000001 8.730748000000000
10.849465370000001 18.905179990000001 15.787261790000001
10.849465370000001 18.905179990000001 22.843775579999999
15.698930740000000 9.206249250000001 8.730748000000000
15.698930740000000 9.206249250000001 15.787261790000001
15.698930740000000 9.206249250000001 22.843775579999999
15.698930740000000 14.055714620000000 8.730748000000000
15.698930740000000 14.055714620000000 15.787261790000001
15.698930740000000 14.055714620000000 22.843775579999999
15.698930740000000 18.905179990000001 8.730748000000000
15.698930740000000 18.905179990000001 15.787261790000001
15.698930740000000 18.905179990000001 22.843775579999999
9.987766000000001 6.781516750000000 12.259005000000000
9.987766000000001 6.781516750000000 19.315518789999999
9.987766000000001 6.781516750000000 26.372032580000003
9.987766000000001 11.630982119999999 12.259005000000000
9.987766000000001 11.630982119999999 19.315518789999999
9.987766000000001 11.630982119999999 26.372032580000003
9.987766000000001 16.480447490000000 12.259005000000000
9.987766000000001 16.480447490000000 19.315518789999999
9.987766000000001 16.480447490000000 26.372032580000003
14.837231370000001 6.781516750000000 12.259005000000000
14.837231370000001 6.781516750000000 19.315518789999999
14.837231370000001 6.781516750000000 26.372032580000003
14.837231370000001 11.630982119999999 12.259005000000000
14.837231370000001 11.630982119999999 19.315518789999999
14.837231370000001 11.630982119999999 26.372032580000003
14.837231370000001 16.480447490000000 12.259005000000000
14.837231370000001 16.480447490000000 19.315518789999999
14.837231370000001 16.480447490000000 26.372032580000003
19.686696740000002 6.781516750000000 12.259005000000000
19.686696740000002 6.781516750000000 19.315518789999999
19.686696740000002 6.781516750000000 26.372032580000003
19.686696740000002 11.630982119999999 12.259005000000000
19.686696740000002 11.630982119999999 19.315518789999999
19.686696740000002 11.630982119999999 26.372032580000003
19.686696740000002 16.480447490000000 12.259005000000000
19.686696740000002 16.480447490000000 19.315518789999999
19.686696740000002 16.480447490000000 26.372032580000003
9.206249250000001 7.563033500000000 7.764128500000000
9.206249250000001 7.563033500000000 14.820642290000000
9.206249250000001 7.563033500000000 21.877156079999999
9.206249250000001 12.412498870000000 7.764128500000000
9.206249250000001 12.412498870000000 14.820642290000000
9.206249250000001 12.412498870000000 21.877156079999999
9.206249250000001 17.261964240000001 7.764128500000000
9.206249250000001 17.261964240000001 14.820642290000000
9.206249250000001 17.261964240000001 21.877156079999999
14.055714620000000 7.563033500000000 7.764128500000000
14.055714620000000 7.563033500000000 14.820642290000000
14.055714620000000 7.563033500000000 21.877156079999999
14.055714620000000 12.412498870000000 7.764128500000000
14.055714620000000 12.412498870000000 14.820642290000000
14.055714620000000 12.412498870000000 21.877156079999999
14.055714620000000 17.261964240000001 7.764128500000000
14.055714620000000 17.261964240000001 14.820642290000000
14.055714620000000 17.261964240000001 21.877156079999999
18.905179990000001 7.563033500000000 7.764128500000000
18.905179990000001 7.563033500000000 14.820642290000000
18.905179990000001 7.563033500000000 21.877156079999999
18.905179990000001 12.412498870000000 7.764128500000000
18.905179990000001 12.412498870000000 14.820642290000000
18.905179990000001 12.412498870000000 21.877156079999999
18.905179990000001 17.261964240000001 7.764128500000000
18.905179990000001 17.261964240000001 14.820642290000000
18.905179990000001 17.261964240000001 21.877156079999999
9.206249250000001 6.000000000000000 7.764128500000000
9.206249250000001 6.000000000000000 14.820642290000000
9.206249250000001 6.000000000000000 21.877156079999999
9.206249250000001 10.849465370000001 7.764128500000000
9.206249250000001 10.849465370000001 14.820642290000000
9.206249250000001 10.849465370000001 21.877156079999999
9.206249250000001 15.698930740000000 7.764128500000000
9.206249250000001 15.698930740000000 14.820642290000000
9.206249250000001 15.698930740000000 21.877156079999999
14.055714620000000 6.000000000000000 7.764128500000000
14.055714620000000 6.000000000000000 14.820642290000000
14.055714620000000 6.000000000000000 21.877156079999999
14.055714620000000 10.849465370000001 7.764128500000000
14.055714620000000 10.849465370000001 14.820642290000000
14.055714620000000 10.849465370000001 21.877156079999999
14.055714620000000 15.698930740000000 7.764128500000000
14.055714620000000 15.698930740000000 14.820642290000000
14.055714620000000 15.698930740000000 21.877156079999999
18.905179990000001 6.000000000000000 7.764128500000000
18.905179990000001 6.000000000000000 14.820642290000000
18.905179990000001 6.000000000000000 21.877156079999999
18.905179990000001 10.849465370000001 7.764128500000000
18.905179990000001 10.849465370000001 14.820642290000000
18.905179990000001 10.849465370000001 21.877156079999999
18.905179990000001 15.698930740000000 7.764128500000000
18.905179990000001 15.698930740000000 14.820642290000000
18.905179990000001 15.698930740000000 21.877156079999999
9.987766000000001 9.206249250000001 6.000000000000000
9.987766000000001 9.206249250000001 13.056513790000000
9.987766000000001 9.206249250000001 20.113027580000001
9.987766000000001 14.055714620000000 6.000000000000000
9.987766000000001 14.055714620000000 13.056513790000000
9.987766000000001 14.055714620000000 20.113027580000001
9.987766000000001 18.905179990000001 6.000000000000000
9.987766000000001 18.905179990000001 13.056513790000000
9.987766000000001 18.905179990000001 20.113027580000001
14.837231370000001 9.206249250000001 6.000000000000000
14.837231370000001 9.206249250000001 13.056513790000000
14.837231370000001 9.206249250000001 20.113027580000001
14.837231370000001 14.055714620000000 6.000000000000000
14.837231370000001 14.055714620000000 13.056513790000000
14.837231370000001 14.055714620000000 20.113027580000001
14.837231370000001 18.905179990000001 6.000000000000000
14.837231370000001 18.905179990000001 13.056513790000000
14.837231370000001 18.905179990000001 20.113027580000001
19.686696740000002 9.206249250000001 6.000000000000000
19.686696740000002 9.206249250000001 13.056513790000000
19.686696740000002 9.206249250000001 20.113027580000001
19.686696740000002 14.055714620000000 6.000000000000000
19.686696740000002 14.055714620000000 13.056513790000000
19.686696740000002 14.055714620000000 20.113027580000001
19.686696740000002 18.905179990000001 6.000000000000000
19.686696740000002 18.905179990000001 13.056513790000000
19.686696740000002 18.905179990000001 20.113027580000001
6.000000000000000 6.781516750000000 9.528257000000000
6.000000000000000 6.781516750000000 16.584770790000000
6.000000000000000 6.781516750000000 23.641284580000001
6.000000000000000 11.630982119999999 9.528257000000000
6.000000000000000 11.630982119999999 16.584770790000000
6.000000000000000 11.630982119999999 23.641284580000001
6.000000000000000 16.480447490000000 9.528257000000000
6.000000000000000 16.480447490000000 16.584770790000000
6.000000000000000 16.480447490000000 23.641284580000001
10.849465370000001 6.781516750000000 9.528257000000000
10.849465370000001 6.781516750000000 16.584770790000000
10.849465370000001 6.781516750000000 23.641284580000001
10.849465370000001 11.630982119999999 9.528257000000000
10.849465370000001 11.630982119999999 16.584770790000000
10.849465370000001 11.630982119999999 23.641284580000001
10.849465370000001 16.480447490000000 9.528257000000000
10.849465370000001 16.480447490000000 16.584770790000000
10.849465370000001 16.480447490000000 23.641284580000001
15.698930740000000 6.781516750000000 9.528257000000000
15.698930740000000 6.781516750000000 16.584770790000000
15.698930740000000 6.781516750000000 23.641284580000001
15.698930740000000 11.630982119999999 9.528257000000000
15.698930740000000 11.630982119999999 16.584770790000000
15.698930740000000 11.630982119999999 23.641284580000001
15.698930740000000 16.480447490000000 9.528257000000000
15.698930740000000 16.480447490000000 16.584770790000000
15.698930740000000 16.480447490000000 23.641284580000001
8.424732499999999 9.206249250000001 6.000000000000000
8.424732499999999 9.206249250000001 13.056513790000000
8.424732499999999 9.206249250000001 20.113027580000001
8.424732499999999 14.055714620000000 6.000000000000000
8.424732499999999 14.055714620000000 13.056513790000000
8.424732499999999 14.055714620000000 20.113027580000001
8.424732499999999 18.905179990000001 6.000000000000000
8.424732499999999 18.905179990000001 13.056513790000000
8.424732499999999 18.905179990000001 20.113027580000001
13.274197869999998 9.206249250000001 6.000000000000000
13.274197869999998 9.206249250000001 13.056513790000000
13.274197869999998 9.206249250000001 20.113027580000001
13.274197869999998 14.055714620000000 6.000000000000000
13.274197869999998 14.055714620000000 13.056513790000000
13.274197869999998 14.055714620000000 20.113027580000001
13.274197869999998 18.905179990000001 6.000000000000000
13.274197869999998 18.905179990000001 13.056513790000000
13.274197869999998 18.905179990000001 20.113027580000001
18.123663239999999 9.206249250000001 6.000000000000000
18.123663239999999 9.206249250000001 13.056513790000000
18.123663239999999 9.206249250000001 20.113027580000001
18.123663239999999 14.055714620000000 6.000000000000000
18.123663239999999 14.055714620000000 13.056513790000000
18.123663239999999 14.055714620000000 20.113027580000001
18.123663239999999 18.905179990000001 6.000000000000000
18.123663239999999 18.905179990000001 13.056513790000000
18.123663239999999 18.905179990000001 20.113027580000001
8.424732499999999 6.781516750000000 12.259005000000000
8.424732499999999 6.781516750000000 19.315518789999999
8.424732499999999 6.781516750000000 26.372032580000003
8.424732499999999 11.630982119999999 12.259005000000000
8.424732499999999 11.630982119999999 19.315518789999999
8.424732499999999 11.630982119999999 26.372032580000003
8.424732499999999 16.480447490000000 12.259005000000000
8.424732499999999 16.480447490000000 19.315518789999999
8.424732499999999 16.480447490000000 26.372032580000003
13.274197869999998 6.781516750000000 12.259005000000000
13.274197869999998 6.781516750000000 19.315518789999999
13.274197869999998 6.781516750000000 26.372032580000003
13.274197869999998 11.630982119999999 12.259005000000000
13.274197869999998 11.630982119999999 19.315518789999999
13.274197869999998 11.630982119999999 26.372032580000003
13.274197869999998 16.480447490000000 12.259005000000000
13.274197869999998 16.480447490000000 19.315518789999999
13.274197869999998 16.480447490000000 26.372032580000003
18.123663239999999 6.781516750000000 12.259005000000000
18.123663239999999 6.781516750000000 19.315518789999999
18.123663239999999 6.781516750000000 26.372032580000003
18.123663239999999 11.630982119999999 12.259005000000000
18.123663239999999 11.630982119999999 19.315518789999999
18.123663239999999 11.630982119999999 26.372032580000003
18.123663239999999 16.480447490000000 12.259005000000000
18.123663239999999 16.480447490000000 19.315518789999999
18.123663239999999 16.480447490000000 26.372032580000003
6.781516750000000 6.000000000000000 6.966619500000000
6.781516750000000 6.000000000000000 14.023133290000001
6.781516750000000 6.000000000000000 21.079647080000001
6.781516750000000 10.849465370000001 6.966619500000000
6.781516750000000 10.849465370000001 14.023133290000001
6.781516750000000 10.849465370000001 21.079647080000001
6.781516750000000 15.698930740000000 6.966619500000000
6.781516750000000 15.698930740000000 14.023133290000001
6.781516750000000 15.698930740000000 21.079647080000001
11.630982119999999 6.000000000000000 6.966619500000000
11.630982119999999 6.000000000000000 14.023133290000001
11.630982119999999 6.000000000000000 21.079647080000001
11.630982119999999 10.849465370000001 6.966619500000000
11.630982119999999 10.849465370000001 14.023133290000001
11.630982119999999 10.849465370000001 21.079647080000001
11.630982119999999 15.698930740000000 6.966619500000000
11.630982119999999 15.698930740000000 14.023133290000001
11.630982119999999 15.698930740000000 21.079647080000001
16.480447490000000 6.000000000000000 6.966619500000000
16.480447490000000 6.000000000000000 14.023133290000001
16.480447490000000 6.000000000000000 21.079647080000001
16.480447490000000 10.849465370000001 6.966619500000000
16.480447490000000 10.849465370000001 14.023133290000001
16.480447490000000 10.849465370000001 21.079647080000001
16.480447490000000 15.698930740000000 6.966619500000000
16.480447490000000 15.698930740000000 14.023133290000001
16.480447490000000 15.698930740000000 21.079647080000001
7.563033500000000 9.206249250000001 8.730748000000000
7.563033500000000 9.206249250000001 15.787261790000001
7.563033500000000 9.206249250000001 22.843775579999999
7.563033500000000 14.055714620000000 8.730748000000000
7.563033500000000 14.055714620000000 15.787261790000001
7.563033500000000 14.055714620000000 22.843775579999999
7.563033500000000 18.905179990000001 8.730748000000000
7.563033500000000 18.905179990000001 15.787261790000001
7.563033500000000 18.905179990000001 22.843775579999999
12.412498870000000 9.206249250000001 8.730748000000000
12.412498870000000 9.206249250000001 15.787261790000001
12.412498870000000 9.206249250000001 22.843775579999999
12.412498870000000 14.055714620000000 8.730748000000000
12.412498870000000 14.055714620000000 15.787261790000001
12.412498870000000 14.055714620000000 22.843775579999999
12.412498870000000 18.905179990000001 8.730748000000000
12.412498870000000 18.905179990000001 15.787261790000001
12.412498870000000 18.905179990000001 22.843775579999999
17.261964240000001 9.206249250000001 8.730748000000000
17.261964240000001 9.206249250000001 15.787261790000001
17.261964240000001 9.206249250000001 22.843775579999999
17.261964240000001 14.055714620000000 8.730748000000000
17.261964240000001 14.055714620000000 15.787261790000001
17.261964240000001 14.055714620000000 22.843775579999999
17.261964240000001 18.905179990000001 8.730748000000000
17.261964240000001 18.905179990000001 15.787261790000001
17.261964240000001 18.905179990000001 22.843775579999999
7.563033500000000 6.781516750000000 9.528257000000000
7.563033500000000 6.781516750000000 16.584770790000000
7.563033500000000 6.781516750000000 23.641284580000001
7.563033500000000 11.630982119999999 9.528257000000000
7.563033500000000 11.630982119999999 16.584770790000000
7.563033500000000 11.630982119999999 23.641284580000001
7.563033500000000 16.480447490000000 9.528257000000000
7.563033500000000 16.480447490000000 16.584770790000000
7.563033500000000 16.480447490000000 23.641284580000001
12.412498870000000 6.781516750000000 9.528257000000000
12.412498870000000 6.781516750000000 16.584770790000000
12.412498870000000 6.781516750000000 23.641284580000001
12.412498870000000 11.630982119999999 9.528257000000000
12.412498870000000 11.630982119999999 16.584770790000000
12.412498870000000 11.630982119999999 23.641284580000001
12.412498870000000 16.480447490000000 9.528257000000000
12.412498870000000 16.480447490000000 16.584770790000000
12.412498870000000 16.480447490000000 23.641284580000001
17.261964240000001 6.781516750000000 9.528257000000000
17.261964240000001 6.781516750000000 16.584770790000000
17.261964240000001 6.781516750000000 23.641284580000001
17.261964240000001 11.630982119999999 9.528257000000000
17.261964240000001 11.630982119999999 16.584770790000000
17.261964240000001 11.630982119999999 23.641284580000001
17.261964240000001 16.480447490000000 9.528257000000000
17.261964240000001 16.480447490000000 16.584770790000000
17.261964240000001 16.480447490000000 23.641284580000001
9.206249250000001 8.424732499999999 10.494876500000000
9.206249250000001 8.424732499999999 17.551390290000001
9.206249250000001 8.424732499999999 24.607904080000001
9.206249250000001 13.274197869999998 10.494876500000000
9.206249250000001 13.274197869999998 17.551390290000001
9.206249250000001 13.274197869999998 24.607904080000001
9.206249250000001 18.123663239999999 10.494876500000000
9.206249250000001 18.123663239999999 17.551390290000001
9.206249250000001 18.123663239999999 24.607904080000001
14.055714620000000 8.424732499999999 10.494876500000000
14.055714620000000 8.424732499999999 17.551390290000001
14.055714620000000 8.424732499999999 24.607904080000001
14.055714620000000 13.274197869999998 10.494876500000000
14.055714620000000 13.274197869999998 17.551390290000001
14.055714620000000 13.274197869999998 24.607904080000001
14.055714620000000 18.123663239999999 10.494876500000000
14.055714620000000 18.123663239999999 17.551390290000001
14.055714620000000 18.123663239999999 24.607904080000001
18.905179990000001 8.424732499999999 10.494876500000000
18.905179990000001 8.424732499999999 17.551390290000001
18.905179990000001 8.424732499999999 24.607904080000001
18.905179990000001 13.274197869999998 10.494876500000000
18.905179990000001 13.274197869999998 17.551390290000001
18.905179990000001 13.274197869999998 24.607904080000001
18.905179990000001 18.123663239999999 10.494876500000000
18.905179990000001 18.123663239999999 17.551390290000001
18.905179990000001 18.123663239999999 24.607904080000001
6.781516750000000 9.987766000000001 11.292385500000000
6.781516750000000 9.987766000000001 18.348899289999999
6.781516750000000 9.987766000000001 25.405413080000002
6.781516750000000 14.837231370000001 11.292385500000000
6.781516750000000 14.837231370000001 18.348899289999999
6.781516750000000 14.837231370000001 25.405413080000002
6.781516750000000 19.686696740000002 11.292385500000000
6.781516750000000 19.686696740000002 18.348899289999999
6.781516750000000 19.686696740000002 25.405413080000002
11.630982119999999 9.987766000000001 11.292385500000000
11.630982119999999 9.987766000000001 18.348899289999999
11.630982119999999 9.987766000000001 25.405413080000002
11.630982119999999 14.837231370000001 11.292385500000000
11.630982119999999 14.837231370000001 18.348899289999999
11.630982119999999 14.837231370000001 25.405413080000002
11.630982119999999 19.686696740000002 11.292385500000000
11.630982119999999 19.686696740000002 18.348899289999999
11.630982119999999 19.686696740000002 25.405413080000002
16.480447490000000 9.987766000000001 11.292385500000000
16.480447490000000 9.987766000000001 18.348899289999999
16.480447490000000 9.987766000000001 25.405413080000002
16.480447490000000 14.837231370000001 11.292385500000000
16.480447490000000 14.837231370000001 18.348899289999999
16.480447490000000 14.837231370000001 25.405413080000002
16.480447490000000 19.686696740000002 11.292385500000000
16.480447490000000 19.686696740000002 18.348899289999999
16.480447490000000 19.686696740000002 25.405413080000002
6.781516750000000 8.424732499999999 11.292385500000000
6.781516750000000 8.424732499999999 18.348899289999999
6.781516750000000 8.424732499999999 25.405413080000002
6.781516750000000 13.274197869999998 11.292385500000000
6.781516750000000 13.274197869999998 18.348899289999999
6.781516750000000 13.274197869999998 25.405413080000002
6.781516750000000 18.123663239999999 11.292385500000000
6.781516750000000 18.123663239999999 18.348899289999999
6.781516750000000 18.123663239999999 25.405413080000002
11.630982119999999 8.424732499999999 11.292385500000000
11.630982119999999 8.424732499999999 18.348899289999999
11.630982119999999 8.424732499999999 25.405413080000002
11.630982119999999 13.274197869999998 11.292385500000000
11.630982119999999 13.274197869999998 18.348899289999999
11.630982119999999 13.274197869999998 25.405413080000002
11.630982119999999 18.123663239999999 11.292385500000000
11.630982119999999 18.123663239999999 18.348899289999999
11.630982119999999 18.123663239999999 25.405413080000002
16.480447490000000 8.424732499999999 11.292385500000000
16.480447490000000 8.424732499999999 18.348899289999999
16.480447490000000 8.424732499999999 25.405413080000002
16.480447490000000 13.274197869999998 11.292385500000000
16.480447490000000 13.274197869999998 18.348899289999999
16.480447490000000 13.274197869999998 25.405413080000002
16.480447490000000 18.123663239999999 11.292385500000000
16.480447490000000 18.123663239999999 18.348899289999999
16.480447490000000 18.123663239999999 25.405413080000002
6.781516750000000 6.781516750000000 6.368001500000000
6.781516750000000 6.781516750000000 13.424515290000000
6.781516750000000 6.781516750000000 20.481029079999999
6.781516750000000 11.630982119999999 6.368001500000000
6.781516750000000 11.630982119999999 13.424515290000000
6.781516750000000 11.630982119999999 20.481029079999999
6.781516750000000 16.480447490000000 6.368001500000000
6.781516750000000 16.480447490000000 13.424515290000000
6.781516750000000 16.480447490000000 20.481029079999999
11.630982119999999 6.781516750000000 6.368001500000000
11.630982119999999 6.781516750000000 13.424515290000000
11.630982119999999 6.781516750000000 20.481029079999999
11.630982119999999 11.630982119999999 6.368001500000000
11.630982119999999 11.630982119999999 13.424515290000000
11.630982119999999 11.630982119999999 20.481029079999999
11.630982119999999 16.480447490000000 6.368001500000000
11.630982119999999 16.480447490000000 13.424515290000000
11.630982119999999 16.480447490000000 20.481029079999999
16.480447490000000 6.781516750000000 6.368001500000000
16.480447490000000 6.781516750000000 13.424515290000000
16.480447490000000 6.781516750000000 20.481029079999999
16.480447490000000 11.630982119999999 6.368001500000000
16.480447490000000 11.630982119999999 13.424515290000000
16.480447490000000 11.630982119999999 20.481029079999999
16.480447490000000 16.480447490000000 6.368001500000000
16.480447490000000 16.480447490000000 13.424515290000000
16.480447490000000 16.480447490000000 20.481029079999999
6.781516750000000 9.206249250000001 8.132130000000000
6.781516750000000 9.206249250000001 15.188643790000000
6.781516750000000 9.206249250000001 22.245157580000001
6.781516750000000 14.055714620000000 8.132130000000000
6.781516750000000 14.055714620000000 15.188643790000000
6.781516750000000 14.055714620000000 22.245157580000001
6.781516750000000 18.905179990000001 8.132130000000000
6.781516750000000 18.905179990000001 15.188643790000000
6.781516750000000 18.905179990000001 22.245157580000001
11.630982119999999 9.206249250000001 8.132130000000000
11.630982119999999 9.206249250000001 15.188643790000000
11.630982119999999 9.206249250000001 22.245157580000001
11.630982119999999 14.055714620000000 8.132130000000000
11.630982119999999 14.055714620000000 15.188643790000000
11.630982119999999 14.055714620000000 22.245157580000001
11.630982119999999 18.905179990000001 8.132130000000000
11.630982119999999 18.905179990000001 15.188643790000000
11.630982119999999 18.905179990000001 22.245157580000001
16.480447490000000 9.206249250000001 8.132130000000000
16.480447490000000 9.206249250000001 15.188643790000000
16.480447490000000 9.206249250000001 22.245157580000001
16.480447490000000 14.055714620000000 8.132130000000000
16.480447490000000 14.055714620000000 15.188643790000000
16.480447490000000 14.055714620000000 22.245157580000001
16.480447490000000 18.905179990000001 8.132130000000000
16.480447490000000 18.905179990000001 15.188643790000000
16.480447490000000 18.905179990000001 22.245157580000001
9.206249250000001 6.781516750000000 11.660387000000000
9.206249250000001 6.781516750000000 18.716900790000000
9.206249250000001 6.781516750000000 25.773414580000001
9.206249250000001 11.630982119999999 11.660387000000000
9.206249250000001 11.630982119999999 18.716900790000000
9.206249250000001 11.630982119999999 25.773414580000001
9.206249250000001 16.480447490000000 11.660387000000000
9.206249250000001 16.480447490000000 18.716900790000000
9.206249250000001 16.480447490000000 25.773414580000001
14.055714620000000 6.781516750000000 11.660387000000000
14.055714620000000 6.781516750000000 18.716900790000000
14.055714620000000 6.781516750000000 25.773414580000001
14.055714620000000 11.630982119999999 11.660387000000000
14.055714620000000 11.630982119999999 18.716900790000000
14.055714620000000 11.630982119999999 25.773414580000001
14.055714620000000 16.480447490000000 11.660387000000000
14.055714620000000 16.480447490000000 18.716900790000000
14.055714620000000 16.480447490000000 25.773414580000001
18.905179990000001 6.781516750000000 11.660387000000000
18.905179990000001 6.781516750000000 18.716900790000000
18.905179990000001 6.781516750000000 25.773414580000001
18.905179990000001 11.630982119999999 11.660387000000000
18.905179990000001 11.630982119999999 18.716900790000000
18.905179990000001 11.630982119999999 25.773414580000001
18.905179990000001 16.480447490000000 11.660387000000000
18.905179990000001 16.480447490000000 18.716900790000000
18.905179990000001 16.480447490000000 25.773414580000001
9.206249250000001 6.781516750000000 8.362746500000000
9.206249250000001 6.781516750000000 15.419260290000000
9.206249250000001 6.781516750000000 22.475774080000001
9.206249250000001 11.630982119999999 8.362746500000000
9.206249250000001 11.630982119999999 15.419260290000000
9.206249250000001 11.630982119999999 22.475774080000001
9.206249250000001 16.480447490000000 8.362746500000000
9.206249250000001 16.480447490000000 15.419260290000000
9.206249250000001 16.480447490000000 22.475774080000001
14.055714620000000 6.781516750000000 8.362746500000000
14.055714620000000 6.781516750000000 15.419260290000000
14.055714620000000 6.781516750000000 22.475774080000001
14.055714620000000 11.630982119999999 8.362746500000000
14.055714620000000 11.630982119999999 15.419260290000000
14.055714620000000 11.630982119999999 22.475774080000001
14.055714620000000 16.480447490000000 8.362746500000000
14.055714620000000 16.480447490000000 15.419260290000000