&GLOBAL
  PRINT_LEVEL LOW
  PROJECT ice_II_GXTB_k111
  RUN_TYPE ENERGY
&END GLOBAL

&FORCE_EVAL
  METHOD Quickstep
  &DFT
    &QS
      EPS_DEFAULT 1.0E-12
      METHOD xTB
      &XTB
        GFN_TYPE TBLITE
        &TBLITE
          METHOD GXTB
          ACCURACY 0.1
        &END TBLITE
        SCC_MIXER TBLITE
        &TBLITE_MIXER
          ITERATIONS 300
        &END TBLITE_MIXER
      &END XTB
    &END QS
    &KPOINTS
      SCHEME MACDONALD 1 1 1 0.0 0.0 0.0
      SYMMETRY F
      FULL_GRID T
    &END KPOINTS
    &SCF
      EPS_SCF 1.0E-9
      MAX_SCF 300
      SCF_GUESS MOPAC
      &MIXING
        METHOD DIRECT_P_MIXING
        ALPHA 0.2
      &END MIXING
      &PRINT
        &RESTART OFF
        &END RESTART
      &END PRINT
    &END SCF
  &END DFT
  &SUBSYS
    &CELL
      CANONICALIZE TRUE
      PERIODIC XYZ
      A 7.123339180000 0.000000000000 -3.041154150000
      B -4.605065820000 5.434641840000 -3.041154150000
      C 0.000000000000 0.000000000000 7.745358940000
    &END CELL
    &COORD
      H   6.417944000000  10.248043000000  8.693522000000
      H   6.623366000000  11.303845000000  9.806830000000
      H   12.768371000000  7.403543000000  12.051133000000
      H   13.091172000000  7.319880000000  13.594135000000
      H   10.646870000000  6.138815000000  15.718164000000
      H   11.934880000000  6.978175000000  15.899631000000
      H   11.270741000000  9.144830000000  8.628222000000
      H   12.582812000000  9.337194000000  7.771747000000
      H   14.802765000000  6.708601000000  7.562427000000
      H   14.894140000000  8.233870000000  7.314282000000
      H   9.024283000000  9.127933000000  12.084565000000
      H   7.961228000000  10.253331000000  11.775600000000
      H   15.710703000000  7.055802000000  13.206108000000
      H   15.505281000000  6.000000000000  12.092800000000
      H   9.360275000000  9.900303000000  9.848497000000
      H   9.037475000000  9.983966000000  8.305495000000
      H   11.481777000000  11.165030000000  6.181465000000
      H   10.193766000000  10.325670000000  6.000000000000
      H   10.857906000000  8.159016000000  13.271408000000
      H   9.545835000000  7.966651000000  14.127882000000
      H   7.325882000000  10.595244000000  14.337203000000
      H   7.234507000000  9.069975000000  14.585348000000
      H   13.104364000000  8.175912000000  9.815064000000
      H   14.167419000000  7.050514000000  10.124030000000
      O   6.000000000000  10.583874000000  9.532841000000
      O   12.346224000000  7.289505000000  12.943956000000
      O   11.625491000000  6.037128000000  15.872685000000
      O   12.164871000000  8.749098000000  8.448550000000
      O   14.666007000000  7.389451000000  6.848524000000
      O   8.513523000000  9.554169000000  11.345785000000
      O   16.128647000000  6.719971000000  12.366789000000
      O   9.782423000000  10.014341000000  8.955674000000
      O   10.503155000000  11.266717000000  6.026945000000
      O   9.963776000000  8.554748000000  13.451079000000
      O   7.462640000000  9.914394000000  15.051105000000
      O   13.615124000000  7.749676000000  10.553845000000
    &END COORD
  &END SUBSYS
&END FORCE_EVAL
