&GLOBAL
  PRINT_LEVEL LOW
  PROJECT imidazole_GXTB_k111_energy
  RUN_TYPE ENERGY
&END GLOBAL

&FORCE_EVAL
  METHOD Quickstep
  STRESS_TENSOR ANALYTICAL
  &DFT
    &QS
      EPS_DEFAULT 1.0E-12
      METHOD xTB
      &XTB
        GFN_TYPE TBLITE
        SCC_MIXER TBLITE
        &TBLITE
          METHOD GXTB
          ACCURACY 0.1
        &END TBLITE
      &END XTB
    &END QS
    &KPOINTS
      SCHEME MACDONALD 1 1 1 0.0 0.0 0.0
      EPS_SYMMETRY 1.0E-8
      SYMMETRY T
      FULL_GRID F
      SYMMETRY_BACKEND SPGLIB
      SYMMETRY_REDUCTION_METHOD SPGLIB
    &END KPOINTS
    &SCF
      EPS_SCF 1.0E-9
      MAX_SCF 300
      SCF_GUESS MOPAC
      &MIXING
        METHOD DIRECT_P_MIXING
        ALPHA 0.2
      &END MIXING
    &END SCF
  &END DFT
  &SUBSYS
    &CELL
      CANONICALIZE TRUE
      PERIODIC XYZ
      A 7.582000000000 0.000000000000 0.000000000000
      B 0.000000000000 5.371000000000 0.000000000000
      C -4.743297007367 0.000000000000 8.564183177625
    &END CELL
    &COORD
      SCALED
      N   0.218900000000  0.332800000000  0.087400000000
      N   0.781100000000  0.667200000000  0.912600000000
      N   0.218900000000  0.167200000000  0.587400000000
      N   0.781100000000  0.832800000000  0.412600000000
      H   0.204600000000  0.265900000000  0.981100000000
      H   0.795400000000  0.734100000000  0.018900000000
      H   0.204600000000  0.234100000000  0.481100000000
      H   0.795400000000  0.765900000000  0.518900000000
      C   0.157800000000  0.219600000000  0.179500000000
      C   0.842200000000  0.780400000000  0.820500000000
      C   0.157800000000  0.280400000000  0.679500000000
      C   0.842200000000  0.719600000000  0.320500000000
      H   0.078500000000  0.045100000000  0.151400000000
      H   0.921500000000  0.954900000000  0.848600000000
      H   0.078500000000  0.454900000000  0.651400000000
      H   0.921500000000  0.545100000000  0.348600000000
      N   0.208500000000  0.346800000000  0.308900000000
      N   0.791500000000  0.653200000000  0.691100000000
      N   0.208500000000  0.153200000000  0.808900000000
      N   0.791500000000  0.846800000000  0.191100000000
      C   0.308300000000  0.551500000000  0.298400000000
      C   0.691700000000  0.448500000000  0.701600000000
      C   0.308300000000  0.948500000000  0.798400000000
      C   0.691700000000  0.051500000000  0.201600000000
      H   0.371300000000  0.688100000000  0.389800000000
      H   0.628700000000  0.311900000000  0.610200000000
      H   0.371300000000  0.811900000000  0.889800000000
      H   0.628700000000  0.188100000000  0.110200000000
      C   0.316400000000  0.544500000000  0.162800000000
      C   0.683600000000  0.455500000000  0.837200000000
      C   0.316400000000  0.955500000000  0.662800000000
      C   0.683600000000  0.044500000000  0.337200000000
      H   0.387100000000  0.671000000000  0.118300000000
      H   0.612900000000  0.329000000000  0.881700000000
      H   0.387100000000  0.829000000000  0.618300000000
      H   0.612900000000  0.171000000000  0.381700000000
    &END COORD
  &END SUBSYS
&END FORCE_EVAL
