&GLOBAL
  PRINT_LEVEL LOW
  PROJECT uracil_GXTB_k111_energy
  RUN_TYPE ENERGY
&END GLOBAL

&FORCE_EVAL
  METHOD Quickstep
  STRESS_TENSOR ANALYTICAL
  &DFT
    &QS
      EPS_DEFAULT 1.0E-12
      METHOD xTB
      &XTB
        GFN_TYPE TBLITE
        SCC_MIXER TBLITE
        &TBLITE
          METHOD GXTB
          ACCURACY 0.1
        &END TBLITE
      &END XTB
    &END QS
    &KPOINTS
      SCHEME MACDONALD 1 1 1 0.0 0.0 0.0
      EPS_SYMMETRY 1.0E-8
      SYMMETRY T
      FULL_GRID F
      SYMMETRY_BACKEND SPGLIB
      SYMMETRY_REDUCTION_METHOD SPGLIB
    &END KPOINTS
    &SCF
      EPS_SCF 1.0E-9
      MAX_SCF 300
      SCF_GUESS MOPAC
      &MIXING
        METHOD DIRECT_P_MIXING
        ALPHA 0.2
      &END MIXING
    &END SCF
  &END DFT
  &SUBSYS
    &CELL
      CANONICALIZE TRUE
      PERIODIC XYZ
      A 11.938000000000 0.000000000000 0.000000000000
      B 0.000000000000 12.376000000000 0.000000000000
      C -1.877095984523 0.000000000000 3.136398843401
    &END CELL
    &COORD
      SCALED
      C   0.151910000000  0.209330000000  0.009130000000
      C   0.848090000000  0.790670000000  0.990870000000
      C   0.651910000000  0.290670000000  0.009130000000
      C   0.348090000000  0.709330000000  0.990870000000
      C   0.179880000000  0.012370000000  0.034940000000
      C   0.820120000000  0.987630000000  0.965060000000
      C   0.679880000000  0.487630000000  0.034940000000
      C   0.320120000000  0.512370000000  0.965060000000
      C   0.305190000000  0.028570000000  0.081930000000
      C   0.694810000000  0.971430000000  0.918070000000
      C   0.805190000000  0.471430000000  0.081930000000
      C   0.194810000000  0.528570000000  0.918070000000
      C   0.346200000000  0.129770000000  0.089050000000
      C   0.653800000000  0.870230000000  0.910950000000
      C   0.846200000000  0.370230000000  0.089050000000
      C   0.153800000000  0.629770000000  0.910950000000
      H   0.427900000000  0.146400000000  0.112000000000
      H   0.572100000000  0.853600000000  0.888000000000
      H   0.927900000000  0.353600000000  0.112000000000
      H   0.072100000000  0.646400000000  0.888000000000
      H   0.296400000000  0.280400000000  0.041600000000
      H   0.703600000000  0.719600000000  0.958400000000
      H   0.796400000000  0.219600000000  0.041600000000
      H   0.203600000000  0.780400000000  0.958400000000
      H   0.034300000000  0.094700000000  0.968000000000
      H   0.965700000000  0.905300000000  0.032000000000
      H   0.534300000000  0.405300000000  0.968000000000
      H   0.465700000000  0.594700000000  0.032000000000
      H   0.353600000000  0.967800000000  0.098600000000
      H   0.646400000000  0.032200000000  0.901400000000
      H   0.853600000000  0.532200000000  0.098600000000
      H   0.146400000000  0.467800000000  0.901400000000
      N   0.272830000000  0.217500000000  0.053360000000
      N   0.727170000000  0.782500000000  0.946640000000
      N   0.772830000000  0.282500000000  0.053360000000
      N   0.227170000000  0.717500000000  0.946640000000
      N   0.112080000000  0.104680000000  0.004060000000
      N   0.887920000000  0.895320000000  0.995940000000
      N   0.612080000000  0.395320000000  0.004060000000
      N   0.387920000000  0.604680000000  0.995940000000
      O   0.084970000000  0.286770000000  0.978270000000
      O   0.915030000000  0.713230000000  0.021730000000
      O   0.584970000000  0.213230000000  0.978270000000
      O   0.415030000000  0.786770000000  0.021730000000
      O   0.129870000000  0.922940000000  0.019620000000
      O   0.870130000000  0.077060000000  0.980380000000
      O   0.629870000000  0.577060000000  0.019620000000
      O   0.370130000000  0.422940000000  0.980380000000
    &END COORD
  &END SUBSYS
&END FORCE_EVAL
