&GLOBAL
  PRINT_LEVEL LOW
  PROJECT oxalic_acid_beta_GFN1_gamma_cell_opt
  RUN_TYPE CELL_OPT
&END GLOBAL

&FORCE_EVAL
  METHOD Quickstep
  STRESS_TENSOR ANALYTICAL
  &DFT
    &QS
      EPS_DEFAULT 1.0E-12
      METHOD xTB
      &XTB
        GFN_TYPE TBLITE
        &TBLITE
          METHOD GFN1
          ACCURACY 0.1
        &END TBLITE
      &END XTB
    &END QS
    &SCF
      EPS_SCF 1.0E-9
      MAX_SCF 300
      SCF_GUESS MOPAC
      &MIXING
        METHOD DIRECT_P_MIXING
        ALPHA 0.2
      &END MIXING
    &END SCF
  &END DFT
  &SUBSYS
    &CELL
      PERIODIC XYZ
      A 5.330000000000 0.000000000000 0.000000000000
      B 0.000000000000 6.015000000000 0.000000000000
      C -2.368478493720 0.000000000000 4.892893379667
    &END CELL
    &COORD
      SCALED
      C   0.144100000000  0.002700000000  0.000100000000
      C   0.855900000000  0.997300000000  0.999900000000
      C   0.144100000000  0.497300000000  0.500100000000
      C   0.855900000000  0.502700000000  0.499900000000
      H   0.499000000000  0.898000000000  0.181000000000
      H   0.501000000000  0.102000000000  0.819000000000
      H   0.499000000000  0.602000000000  0.681000000000
      H   0.501000000000  0.398000000000  0.319000000000
      O   0.178500000000  0.104400000000  0.822400000000
      O   0.821500000000  0.895600000000  0.177600000000
      O   0.178500000000  0.395600000000  0.322400000000
      O   0.821500000000  0.604400000000  0.677600000000
      O   0.331100000000  0.894700000000  0.201700000000
      O   0.668900000000  0.105300000000  0.798300000000
      O   0.331100000000  0.605300000000  0.701700000000
      O   0.668900000000  0.394700000000  0.298300000000
    &END COORD
  &END SUBSYS
&END FORCE_EVAL

&MOTION
  &CELL_OPT
    OPTIMIZER BFGS
    MAX_ITER 200
    EXTERNAL_PRESSURE 0.0
  &END CELL_OPT
&END MOTION
