DMC-ICE13 ice Ih; Cartesian 2x2x2 supercell
1.0
15.356185999999999 0.000000000000000 0.000000000000000
7.678092000000000 13.298845999999999 0.000000000000000
0.000000000000000 0.000000000000000 14.469134000000000
H O
192 96
Cartesian
1.285051545679000 2.225681567714000 1.445459252033000
1.285051545679000 2.225681567714000 8.680026252033000
5.124097545679001 8.875104567714001 1.445459252033000
5.124097545679001 8.875104567714001 8.680026252033000
8.963144545679000 2.225681567714000 1.445459252033000
8.963144545679000 2.225681567714000 8.680026252033000
12.802190545679000 8.875104567714001 1.445459252033000
12.802190545679000 8.875104567714001 8.680026252033000
5.107905114896000 0.000066494230000 1.445321795260000
5.107905114896000 0.000066494230000 8.679888795260000
8.946951114896001 6.649489494230000 1.445321795260000
8.946951114896001 6.649489494230000 8.679888795260000
12.785998114896000 0.000066494230000 1.445321795260000
12.785998114896000 0.000066494230000 8.679888795260000
16.625044114895999 6.649489494230000 1.445321795260000
16.625044114895999 6.649489494230000 8.679888795260000
5.123932801408000 4.423601794403000 1.445401375497000
5.123932801408000 4.423601794403000 8.679968375497001
8.962978801408001 11.073024794403000 1.445401375497000
8.962978801408001 11.073024794403000 8.679968375497001
12.802025801408000 4.423601794403000 1.445401375497000
12.802025801408000 4.423601794403000 8.679968375497001
16.641071801408000 11.073024794403000 1.445401375497000
16.641071801408000 11.073024794403000 8.679968375497001
6.409272275576000 6.649263413848000 5.062648702662000
6.409272275576000 6.649263413848000 12.297215702662001
10.248318275576001 13.298686413847999 5.062648702662000
10.248318275576001 13.298686413847999 12.297215702662001
14.087365275575999 6.649263413848000 5.062648702662000
14.087365275575999 6.649263413848000 12.297215702662001
17.926411275576001 13.298686413847999 5.062648702662000
17.926411275576001 13.298686413847999 12.297215702662001
10.231822560133999 4.423455507097000 5.062749986600000
10.231822560133999 4.423455507097000 12.297316986600000
14.070868560133999 11.072878507096998 5.062749986600000
14.070868560133999 11.072878507096998 12.297316986600000
17.909915560133999 4.423455507097000 5.062749986600000
17.909915560133999 4.423455507097000 12.297316986600000
21.748961560133999 11.072878507096998 5.062749986600000
21.748961560133999 11.072878507096998 12.297316986600000
6.392914431050000 2.225927596365000 5.062742752033000
6.392914431050000 2.225927596365000 12.297309752033000
10.231960431050000 8.875350596364999 5.062742752033000
10.231960431050000 8.875350596364999 12.297309752033000
14.071007431049999 2.225927596365000 5.062742752033000
14.071007431049999 2.225927596365000 12.297309752033000
17.910053431050002 8.875350596364999 5.062742752033000
17.910053431050002 8.875350596364999 12.297309752033000
4.180445227149000 0.000039896538000 0.141681760128000
4.180445227149000 0.000039896538000 7.376248760128000
8.019491227149000 6.649462896538000 0.141681760128000
8.019491227149000 6.649462896538000 7.376248760128000
11.858538227148999 0.000039896538000 0.141681760128000
11.858538227148999 0.000039896538000 7.376248760128000
15.697584227149001 6.649462896538000 0.141681760128000
15.697584227149001 6.649462896538000 7.376248760128000
1.748677774897000 3.028945164960000 0.141833686035000
1.748677774897000 3.028945164960000 7.376400686035000
5.587723774897000 9.678368164959998 0.141833686035000
5.587723774897000 9.678368164959998 7.376400686035000
9.426770774896999 3.028945164960000 0.141833686035000
9.426770774896999 3.028945164960000 7.376400686035000
13.265816774897001 9.678368164959998 0.141833686035000
13.265816774897001 9.678368164959998 7.376400686035000
5.587693518045000 3.620477835040000 0.141754105798000
5.587693518045000 3.620477835040000 7.376321105798000
9.426739518045000 10.269900835040000 0.141754105798000
9.426739518045000 10.269900835040000 7.376321105798000
13.265786518044999 3.620477835040000 0.141754105798000
13.265786518044999 3.620477835040000 7.376321105798000
17.104832518045001 10.269900835040000 0.141754105798000
17.104832518045001 10.269900835040000 7.376321105798000
7.336670738579000 6.649290011540000 3.758965260128000
7.336670738579000 6.649290011540000 10.993532260128001
11.175716738579000 13.298713011539999 3.758965260128000
11.175716738579000 13.298713011539999 10.993532260128001
15.014763738578999 6.649290011540000 3.758965260128000
15.014763738578999 6.649290011540000 10.993532260128001
18.853809738578999 13.298713011539999 3.758965260128000
18.853809738578999 13.298713011539999 10.993532260128001
9.768230882330000 3.620251754658000 3.759081013200000
9.768230882330000 3.620251754658000 10.993648013200000
13.607276882330000 10.269674754657999 3.759081013200000
13.607276882330000 10.269674754657999 10.993648013200000
17.446323882329999 3.620251754658000 3.759081013200000
17.446323882329999 3.620251754658000 10.993648013200000
21.285369882330002 10.269674754657999 3.759081013200000
21.285369882330002 10.269674754657999 10.993648013200000
5.929199782976999 3.028971762652000 3.759023136664001
5.929199782976999 3.028971762652000 10.993590136664000
9.768245782976999 9.678394762651999 3.759023136664001
9.768245782976999 9.678394762651999 10.993590136664000
13.607292782976998 3.028971762652000 3.759023136664001
13.607292782976998 3.028971762652000 10.993590136664000
17.446338782977001 9.678394762651999 3.759023136664001
17.446338782977001 9.678394762651999 10.993590136664000
5.927337633445999 5.848041189462999 7.122329927562000
5.927337633445999 5.848041189462999 14.356896927562001
9.766383633445999 12.497464189462999 7.122329927562000
9.766383633445999 12.497464189462999 14.356896927562001
13.605430633445998 5.848041189462999 7.122329927562000
13.605430633445998 5.848041189462999 14.356896927562001
17.444476633446001 12.497464189462999 7.122329927562000
17.444476633446001 12.497464189462999 14.356896927562001
5.927368225305000 7.450725017460999 7.122293754727001
5.927368225305000 7.450725017460999 14.356860754727002
9.766414225305001 14.100148017460999 7.122293754727001
9.766414225305001 14.100148017460999 14.356860754727002
13.605461225305000 7.450725017460999 7.122293754727001
13.605461225305000 7.450725017460999 14.356860754727002
17.444507225304999 14.100148017460999 7.122293754727001
17.444507225304999 14.100148017460999 14.356860754727002
9.778776621156000 5.241507421094999 7.122351631263000
9.778776621156000 5.241507421094999 14.356918631262999
13.617822621156000 11.890930421095000 7.122351631263000
13.617822621156000 11.890930421095000 14.356918631262999
17.456869621155999 5.241507421094999 7.122351631263000
17.456869621155999 5.241507421094999 14.356918631262999
21.295915621155999 11.890930421095000 7.122351631263000
21.295915621155999 11.890930421095000 14.356918631262999
7.327783679793999 2.209304038865000 7.122416742366000
7.327783679793999 2.209304038865000 14.356983742366001
11.166829679793999 8.858727038865000 7.122416742366000
11.166829679793999 8.858727038865000 14.356983742366001
15.005876679794000 2.209304038865000 7.122416742366000
15.005876679794000 2.209304038865000 14.356983742366001
18.844922679793999 8.858727038865000 7.122416742366000
18.844922679793999 8.858727038865000 14.356983742366001
5.939811029391000 1.408002021404000 7.122329927562000
5.939811029391000 1.408002021404000 14.356896927562001
9.778857029391000 8.057425021403999 7.122329927562000
9.778857029391000 8.057425021403999 14.356896927562001
13.617904029390999 1.408002021404000 7.122329927562000
13.617904029390999 1.408002021404000 14.356896927562001
17.456950029390999 8.057425021403999 7.122329927562000
17.456950029390999 8.057425021403999 14.356896927562001
1.738147392256000 1.407702797369000 3.505126007799000
1.738147392256000 1.407702797369000 10.739693007799001
5.577193392256000 8.057125797369000 3.505126007799000
5.577193392256000 8.057125797369000 10.739693007799001
9.416240392256000 1.407702797369000 3.505126007799000
9.416240392256000 1.407702797369000 10.739693007799001
13.255286392256000 8.057125797369000 3.505126007799000
13.255286392256000 8.057125797369000 10.739693007799001
9.428812815141999 7.450718368037999 3.505060896696000
9.428812815141999 7.450718368037999 10.739627896696000
13.267858815141999 14.100141368037999 3.505060896696000
13.267858815141999 14.100141368037999 10.739627896696000
17.106905815141999 7.450718368037999 3.505060896696000
17.106905815141999 7.450718368037999 10.739627896696000
20.945951815141999 14.100141368037999 3.505060896696000
20.945951815141999 14.100141368037999 10.739627896696000
9.428778384237999 5.848014591770999 3.505003020160000
9.428778384237999 5.848014591770999 10.739570020160000
13.267824384237999 12.497437591771000 3.505003020160000
13.267824384237999 12.497437591771000 10.739570020160000
17.106871384237998 5.848014591770999 3.505003020160000
17.106871384237998 5.848014591770999 10.739570020160000
20.945917384238001 12.497437591771000 3.505003020160000
20.945917384238001 12.497437591771000 10.739570020160000
4.189117299324000 4.440105662289000 3.505111538665000
4.189117299324000 4.440105662289000 10.739678538665000
8.028163299324000 11.089528662288998 3.505111538665000
8.028163299324000 11.089528662288998 10.739678538665000
11.867210299324000 4.440105662289000 3.505111538665000
11.867210299324000 4.440105662289000 10.739678538665000
15.706256299324000 11.089528662288998 3.505111538665000
15.706256299324000 11.089528662288998 10.739678538665000
5.577105305911999 5.241420978596000 3.505046427562000
5.577105305911999 5.241420978596000 10.739613427562000
9.416151305911999 11.890843978595999 3.505046427562000
9.416151305911999 11.890843978595999 10.739613427562000
13.255198305912000 5.241420978596000 3.505046427562000
13.255198305912000 5.241420978596000 10.739613427562000
17.094244305912000 11.890843978595999 3.505046427562000
17.094244305912000 11.890843978595999 10.739613427562000
0.350182299433000 2.209084607906000 3.505140476933000
0.350182299433000 2.209084607906000 10.739707476933001
4.189228299433000 8.858507607905999 3.505140476933000
4.189228299433000 8.858507607905999 10.739707476933001
8.028275299433000 2.209084607906000 3.505140476933000
8.028275299433000 2.209084607906000 10.739707476933001
11.867321299433000 8.858507607905999 3.505140476933000
11.867321299433000 8.858507607905999 10.739707476933001
11.166718679698000 4.440152208250000 7.122366100397000
11.166718679698000 4.440152208250000 14.356933100397001
15.005764679698000 11.089575208250000 7.122366100397000
15.005764679698000 11.089575208250000 14.356933100397001
18.844811679698001 4.440152208250000 7.122366100397000
18.844811679698001 4.440152208250000 14.356933100397001
22.683857679698001 11.089575208250000 7.122366100397000
22.683857679698001 11.089575208250000 14.356933100397001
1.272060214017000 2.203153322590000 0.445765080272000
1.272060214017000 2.203153322590000 7.680332080272001
5.111106214017000 8.852576322590000 0.445765080272000
5.111106214017000 8.852576322590000 7.680332080272001
8.950153214017000 2.203153322590000 0.445765080272000
8.950153214017000 2.203153322590000 7.680332080272001
12.789199214017000 8.852576322590000 0.445765080272000
12.789199214017000 8.852576322590000 7.680332080272001
5.133903137793000 0.000079793076000 0.445613154365000
5.133903137793000 0.000079793076000 7.680180154365000
8.972949137793000 6.649502793076000 0.445613154365000
8.972949137793000 6.649502793076000 7.680180154365000
12.811996137792999 0.000079793076000 0.445613154365000
12.811996137792999 0.000079793076000 7.680180154365000
16.651042137792999 6.649502793076000 0.445613154365000
16.651042137792999 6.649502793076000 7.680180154365000
5.110968339678000 4.446203183180000 0.445707203736000
5.110968339678000 4.446203183180000 7.680274203736000
8.950014339678001 11.095626183179998 0.445707203736000
8.950014339678001 11.095626183179998 7.680274203736000
12.789061339678000 4.446203183180000 0.445707203736000
12.789061339678000 4.446203183180000 7.680274203736000
16.628107339677999 11.095626183179998 0.445707203736000
16.628107339677999 11.095626183179998 7.680274203736000
6.383228184122000 6.649236816156000 4.062940061767001
6.383228184122000 6.649236816156000 11.297507061767000
10.222274184122000 13.298659816156000 4.062940061767001
10.222274184122000 13.298659816156000 11.297507061767000
14.061321184122001 6.649236816156000 4.062940061767001
14.061321184122001 6.649236816156000 11.297507061767000
17.900367184122000 13.298659816156000 4.062940061767001
17.900367184122000 13.298659816156000 11.297507061767000
6.405917283249000 2.203273012204000 4.063048580272000
6.405917283249000 2.203273012204000 11.297615580272002
10.244963283249000 8.852696012203999 4.063048580272000
10.244963283249000 8.852696012203999 11.297615580272002
14.084010283249000 2.203273012204000 4.063048580272000
14.084010283249000 2.203273012204000 11.297615580272002
17.923056283249000 8.852696012203999 4.063048580272000
17.923056283249000 8.852696012203999 11.297615580272002
6.416366833500000 6.649369804616000 6.776951698982000
6.416366833500000 6.649369804616000 14.011518698982000
10.255412833499999 13.298792804615999 6.776951698982000
10.255412833499999 13.298792804615999 14.011518698982000
14.094459833500000 6.649369804616000 6.776951698982000
14.094459833500000 6.649369804616000 14.011518698982000
17.933505833500000 13.298792804615999 6.776951698982000
17.933505833500000 13.298792804615999 14.011518698982000
6.389290370680000 2.232231249369000 6.777110859456000
6.389290370680000 2.232231249369000 14.011677859456000
10.228336370680001 8.881654249368999 6.777110859456000
10.228336370680001 8.881654249368999 14.011677859456000
14.067383370680000 2.232231249369000 6.777110859456000
14.067383370680000 2.232231249369000 14.011677859456000
17.906429370680002 8.881654249368999 6.777110859456000
17.906429370680002 8.881654249368999 14.011677859456000
1.288687122246000 2.231912077065000 3.159849063157000
1.288687122246000 2.231912077065000 10.394416063157001
5.127733122246000 8.881335077065000 3.159849063157000
5.127733122246000 8.881335077065000 10.394416063157001
8.966780122246000 2.231912077065000 3.159849063157000
8.966780122246000 2.231912077065000 10.394416063157001
12.805826122246000 8.881335077065000 3.159849063157000
12.805826122246000 8.881335077065000 10.394416063157001
8.939837361738999 6.649389752884999 3.159624791580000
8.939837361738999 6.649389752884999 10.394191791580001
12.778883361738998 13.298812752884999 3.159624791580000
12.778883361738998 13.298812752884999 10.394191791580001
16.617930361738999 6.649389752884999 3.159624791580000
16.617930361738999 6.649389752884999 10.394191791580001
20.456976361738999 13.298812752884999 3.159624791580000
20.456976361738999 13.298812752884999 10.394191791580001
5.127599091294000 4.417238296592000 3.159769482920000
5.127599091294000 4.417238296592000 10.394336482920000
8.966645091294000 11.066661296591999 3.159769482920000
8.966645091294000 11.066661296591999 10.394336482920000
12.805692091293999 4.417238296592000 3.159769482920000
12.805692091293999 4.417238296592000 10.394336482920000
16.644738091294002 11.066661296591999 3.159769482920000
16.644738091294002 11.066661296591999 10.394336482920000
10.244848443211000 4.446030298181999 4.063055814839000
10.244848443211000 4.446030298181999 11.297622814839000
14.083894443210999 11.095453298181999 4.063055814839000
14.083894443210999 11.095453298181999 11.297622814839000
17.922941443210998 4.446030298181999 4.063055814839000
17.922941443210998 4.446030298181999 11.297622814839000
21.761987443210998 11.095453298181999 4.063055814839000
21.761987443210998 11.095453298181999 11.297622814839000
10.228194661658000 4.417251595438000 6.817125321878670
10.228194661658000 4.417251595438000 14.051692321878670
14.067240661657999 11.066674595437998 6.817125321878670
14.067240661657999 11.066674595437998 14.051692321878670
17.906287661657998 4.417251595438000 6.817125321878670
17.906287661657998 4.417251595438000 14.051692321878670
21.745333661658002 11.066674595437998 6.817125321878670
21.745333661658002 11.066674595437998 14.051692321878670
