&GLOBAL
  PRINT_LEVEL LOW
  PROJECT 14_cyclohexanedione_GXTB_mol_geoopt
  RUN_TYPE GEO_OPT
&END GLOBAL

&FORCE_EVAL
  METHOD Quickstep
  &DFT
    &QS
      EPS_DEFAULT 1.0E-12
      METHOD xTB
      &XTB
        GFN_TYPE TBLITE
        SCC_MIXER TBLITE
        &TBLITE
          METHOD GXTB
          ACCURACY 0.1
        &END TBLITE
      &END XTB
    &END QS
    &POISSON
      PERIODIC NONE
    &END POISSON
    &SCF
      EPS_SCF 1.0E-9
      MAX_SCF 300
      SCF_GUESS MOPAC
      &MIXING
        METHOD DIRECT_P_MIXING
        ALPHA 0.2
      &END MIXING
    &END SCF
  &END DFT
  &SUBSYS
    &CELL
      ABC 30.0 30.0 30.0
      PERIODIC NONE
    &END CELL
    &COORD
      C  -2.829250000000 -1.014350000000  0.006930000000
      C  -1.326050000000 -0.815590000000 -0.251290000000
      C  -1.746680000000  1.547530000000  0.715000000000
      C  -2.940130000000  1.557410000000 -0.255220000000
      H  -0.737820000000 -1.684410000000  0.056610000000
      H  -1.146700000000 -0.687860000000 -1.329230000000
      H  -2.999120000000 -1.230380000000  1.072260000000
      H  -2.105280000000  1.407860000000  1.745700000000
      H  -1.201780000000  2.495510000000  0.705780000000
      H  -2.591060000000  1.785950000000 -1.273240000000
      H  -3.670240000000  2.330600000000 -0.000650000000
      H  -3.232130000000 -1.866810000000 -0.546850000000
      C  -0.757980000000  0.420300000000  0.437770000000
      O   0.416270000000  0.502290000000  0.748560000000
      C  -3.663170000000  0.217030000000 -0.329640000000
      O  -4.837610000000  0.134770000000 -0.639650000000
    &END COORD
  &END SUBSYS
&END FORCE_EVAL

&MOTION
  &GEO_OPT
    OPTIMIZER BFGS
    MAX_ITER 200
  &END GEO_OPT
&END MOTION
