DMC-ICE13 ice IV; Cartesian 2x2x2 supercell
1.0
15.563560320603999 0.249393908182000 0.318065852980000
5.532020656676000 14.549342815461999 0.318065870830000
5.647925342740000 3.962068147720000 14.034388197907999
H O
256 128
Cartesian
7.300011330030438 7.721652189439383 6.405487212472605
10.123974001400438 9.702686263299384 13.422681311426604
10.066021658368438 14.996323597170383 6.564520147887605
12.889984329738438 16.977357671030383 13.581714246841605
15.081791490332439 7.846349143530383 6.564520138962605
17.905754161702440 9.827383217390384 13.581714237916604
17.847801818670440 15.121020551261383 6.723553074377604
20.671764490040438 17.102054625121383 13.740747173331604
8.353145553389826 8.603171245885385 5.551761480916457
11.177108224759825 10.584205319745385 12.568955579870456
11.119155881727826 15.877842653616383 5.710794416331457
13.943118553097825 17.858876727476385 12.727988515285457
16.134925713691825 8.727868199976385 5.710794407406457
18.958888385061826 10.708902273836385 12.727988506360457
18.900936042029826 16.002539607707384 5.869827342821456
21.724898713399824 17.983573681567385 12.887021441775456
3.513558887075504 2.156045255155059 4.810467846266175
6.337521558445504 4.137079329015059 11.827661945220175
6.279569215413504 9.430716662886059 4.969500781681176
9.103531886783504 11.411750736746059 11.986694880635175
11.295339047377503 2.280742209246059 4.969500772756176
14.119301718747504 4.261776283106059 11.986694871710174
14.061349375715505 9.555413616977059 5.128533708171175
16.885312047085506 11.536447690837058 12.145727807125175
7.859214734121380 6.607863845664465 4.793335269306230
10.683177405491380 8.588897919524465 11.810529368260230
10.625225062459380 13.882535253395464 4.952368204721230
13.449187733829380 15.863569327255465 11.969562303675229
15.640994894423379 6.732560799755465 4.952368195796230
18.464957565793380 8.713594873615465 11.969562294750229
18.407005222761381 14.007232207486464 5.111401131211229
21.230967894131382 15.988266281346464 12.128595230165228
9.925772574028775 5.318394224553871 7.065683987359413
12.749735245398774 7.299428298413871 14.082878086313412
12.691782902366775 12.593065632284871 7.224716922774413
15.515745573736774 14.574099706144871 14.241911021728413
17.707552734330775 5.443091178644871 7.224716913849413
20.531515405700773 7.424125252504871 14.241911012803413
20.473563062668774 12.717762586375871 7.383749849264412
23.297525734038775 14.698796660235871 14.400943948218412
6.020766056492114 1.542026521937973 0.899069565148933
8.844728727862114 3.523060595797973 7.916263664102932
8.786776384830114 8.816697929668972 1.058102500563933
11.610739056200114 10.797732003528974 8.075296599517934
13.802546216794113 1.666723476028973 1.058102491638933
16.626508888164114 3.647757549888973 8.075296590592933
16.568556545132115 8.941394883759973 1.217135427053933
19.392519216502116 10.922428957619971 8.234329526007933
10.554106388131837 3.619983599596564 5.379545488720354
13.378069059501836 5.601017673456564 12.396739587674354
13.320116716469837 10.894655007327565 5.538578424135355
16.144079387839838 12.875689081187565 12.555772523089354
18.335886548433837 3.744680553687564 5.538578415210354
21.159849219803839 5.725714627547564 12.555772514164353
21.101896876771839 11.019351961418565 5.697611350625354
23.925859548141837 13.000386035278563 12.714805449579353
8.956978343641236 4.938575578431340 5.879875516233852
11.780941015011235 6.919609652291340 12.897069615187853
11.722988671979236 12.213246986162339 6.038908451648853
14.546951343349235 14.194281060022341 13.056102550602851
16.738758503943235 5.063272532522340 6.038908442723852
19.562721175313236 7.044306606382341 13.056102541677852
19.504768832281236 12.337943940253339 6.197941378138852
22.328731503651234 14.318978014113339 13.215135477092851
8.092133981577435 4.126228027047390 1.870948445839804
10.916096652947434 6.107262100907390 8.888142544793803
10.858144309915435 11.400899434778390 2.029981381254804
13.682106981285434 13.381933508638390 9.047175480208804
15.873914141879435 4.250924981138390 2.029981372329804
18.697876813249437 6.231959054998391 9.047175471283804
18.639924470217437 11.525596388869390 2.189014307744804
21.463887141587435 13.506630462729390 9.206208406698803
7.085161499174301 5.279050004498866 1.460903716381156
9.909124170544301 7.260084078358866 8.478097815335156
9.851171827512301 12.553721412229866 1.619936651796156
12.675134498882301 14.534755486089868 8.637130750750156
14.866941659476300 5.403746958589866 1.619936642871156
17.690904330846301 7.384781032449866 8.637130741825157
17.632951987814302 12.678418366320866 1.778969578286156
20.456914659184299 14.659452440180864 8.796163677240155
11.588142070581974 7.706279579901961 7.114048494997077
14.412104741951973 9.687313653761962 14.131242593951075
14.354152398919974 14.980950987632960 7.273081430412077
17.178115070289973 16.961985061492960 14.290275529366077
19.369922230883972 7.830976533992961 7.273081421487077
22.193884902253973 9.812010607852962 14.290275520441076
22.135932559221974 15.105647941723960 7.432114356902076
24.959895230591975 17.086682015583960 14.449308455856077
9.216925606587351 7.847202343682138 2.238558233795609
12.040888277957350 9.828236417542138 9.255752332749609
11.982935934925351 15.121873751413137 2.397591169210609
14.806898606295350 17.102907825273139 9.414785268164609
16.998705766889351 7.971899297773138 2.397591160285609
19.822668438259349 9.952933371633138 9.414785259239610
19.764716095227350 15.246570705504137 2.556624095700609
22.588678766597351 17.227604779364135 9.573818194654608
7.012833677549014 7.510489909206644 2.043164437479764
9.836796348919014 9.491523983066644 9.060358536433764
9.778844005887013 14.785161316937643 2.202197372894764
12.602806677257014 16.766195390797645 9.219391471848764
14.794613837851013 7.635186863297644 2.202197363969764
17.618576509221015 9.616220937157644 9.219391462923763
17.560624166189015 14.909858271028643 2.361230299384764
20.384586837559013 16.890892344888641 9.378424398338764
5.519595585740303 2.830194789058151 2.543097760323147
8.343558257110303 4.811228862918151 9.560291859277147
8.285605914078303 10.104866196789152 2.702130695738147
11.109568585448303 12.085900270649152 9.719324794692147
13.301375746042304 2.954891743149151 2.702130686813148
16.125338417412301 4.935925817009151 9.719324785767148
16.067386074380302 10.229563150880152 2.861163622228148
18.891348745750303 12.210597224740150 9.878357721182146
11.001805422100041 6.545836362797952 3.421140823882451
13.825768093470041 8.526870436657951 10.438334922836450
13.767815750438041 13.820507770528952 3.580173759297451
16.591778421808041 15.801541844388954 10.597367858251452
18.783585582402040 6.670533316888952 3.580173750372452
21.607548253772041 8.651567390748951 10.597367849326451
21.549595910740042 13.945204724619952 3.739206685787452
24.373558582110043 15.926238798479950 10.756400784741452
3.185900838725837 5.269382054496485 1.285384865231277
6.009863510095837 7.250416128356485 8.302578964185276
5.951911167063837 12.544053462227485 1.444417800646277
8.775873838433837 14.525087536087486 8.461611899600278
10.967680999027838 5.394079008587485 1.444417791721277
13.791643670397837 7.375113082447485 8.461611890675277
13.733691327365838 12.668750416318485 1.603450727136277
16.557653998735837 14.649784490178483 8.620644826090277
9.508503931378034 6.044221181321568 3.338263890347901
12.332466602748033 8.025255255181568 10.355457989301900
12.274514259716033 13.318892589052567 3.497296825762901
15.098476931086033 15.299926662912569 10.514490924716901
17.290284091680032 6.168918135412568 3.497296816837901
20.114246763050033 8.149952209272568 10.514490915791901
20.056294420018034 13.443589543143567 3.656329752252901
22.880257091388032 15.424623617003567 10.673523851206900
4.943249566129811 5.767578407955401 4.793981916579614
7.767212237499811 7.748612481815401 11.811176015533613
7.709259894467811 13.042249815686400 4.953014851994614
10.533222565837811 15.023283889546402 11.970208950948614
12.725029726431810 5.892275362046401 4.953014843069614
15.548992397801811 7.873309435906402 11.970208942023614
15.491040054769812 13.166946769777400 5.112047778484613
18.315002726139809 15.147980843637400 12.129241877438613
5.825486565525564 6.820291103866850 2.896890168217060
8.649449236895563 8.801325177726850 9.914084267171059
8.591496893863564 14.094962511597849 3.055923103632060
11.415459565233563 16.075996585457851 10.073117202586060
13.607266725827564 6.944988057957850 3.055923094707060
16.431229397197562 8.926022131817851 10.073117193661060
16.373277054165563 14.219659465688849 3.214956030122060
19.197239725535564 16.200693539548851 10.232150129076059
4.539160453156860 7.257072152200684 4.963634889149937
7.363123124526860 9.238106226060683 11.980828988103937
7.305170781494860 14.531743559931684 5.122667824564937
10.129133452864860 16.512777633791686 12.139861923518936
12.320940613458859 7.381769106291684 5.122667815639937
15.144903284828860 9.362803180151683 12.139861914593936
15.086950941796861 14.656440514022684 5.281700751054936
17.910913613166862 16.637474587882682 12.298894850008935
6.037848534228139 5.407630905414051 6.770704953008572
8.861811205598139 7.388664979274051 13.787899051962572
8.803858862566139 12.682302313145051 6.929737888423572
11.627821533936139 14.663336387005051 13.946931987377571
13.819628694530138 5.532327859505051 6.929737879498572
16.643591365900139 7.513361933365051 13.946931978452572
16.585639022868140 12.806999267236051 7.088770814913572
19.409601694238141 14.788033341096050 14.105964913867570
4.448910060253872 4.382429148757339 1.455037838509750
7.272872731623872 6.363463222617339 8.472231937463750
7.214920388591872 11.657100556488338 1.614070773924750
10.038883059961872 13.638134630348340 8.631264872878750
12.230690220555871 4.507126102848339 1.614070764999751
15.054652891925873 6.488160176708339 8.631264863953749
14.996700548893873 11.781797510579338 1.773103700414751
17.820663220263871 13.762831584439338 8.790297799368750
6.653970290340483 3.286371553665437 5.588122355797799
9.477932961710483 5.267405627525437 12.605316454751797
9.419980618678483 10.561042961396437 5.747155291212799
12.243943290048483 12.542077035256437 12.764349390166799
14.435750450642484 3.411068507756437 5.747155282287799
17.259713122012485 5.392102581616437 12.764349381241798
17.201760778980486 10.685739915487437 5.906188217702798
20.025723450350483 12.666773989347437 12.923382316656799
7.419161553929940 2.551909795214846 4.407666609458120
10.243124225299940 4.532943869074846 11.424860708412119
10.185171882267941 9.826581202945846 4.566699544873121
13.009134553637939 11.807615276805848 11.583893643827121
15.200941714231940 2.676606749305846 4.566699535948120
18.024904385601939 4.657640823165846 11.583893634902120
17.966952042569940 9.951278157036846 4.725732471363120
20.790914713939941 11.932312230896844 11.742926570317120
11.225833336048346 8.916870787421706 6.210727751961591
14.049796007418346 10.897904861281706 13.227921850915591
13.991843664386346 16.191542195152707 6.369760687376592
16.815806335756346 18.172576269012708 13.386954786330591
19.007613496350345 9.041567741512706 6.369760678451591
21.831576167720346 11.022601815372706 13.386954777405592
21.773623824688347 16.316239149243707 6.528793613866591
24.597586496058348 18.297273223103705 13.545987712820590
5.057895413625962 4.174236376401907 6.687827993104946
7.881858084995962 6.155270450261907 13.705022092058947
7.823905741963962 11.448907784132906 6.846860928519947
10.647868413333962 13.429941857992908 13.864055027473945
12.839675573927963 4.298933330492907 6.846860919594946
15.663638245297962 6.279967404352907 13.864055018548946
15.605685902265963 11.573604738223906 7.005893855009946
18.429648573635962 13.554638812083905 14.023087953963945
9.475256794135257 2.957308028113017 3.557086921397549
12.299219465505256 4.938342101973017 10.574281020351549
12.241267122473257 10.231979435844016 3.716119856812549
15.065229793843256 12.213013509704018 10.733313955766549
17.257036954437257 3.082004982204017 3.716119847887549
20.080999625807259 5.063039056064017 10.733313946841548
20.023047282775259 10.356676389935016 3.875152783302549
22.847009954145257 12.337710463795016 10.892346882256549
4.504613969606921 3.582930097915064 3.446418513998660
7.328576640976921 5.563964171775064 10.463612612952659
7.270624297944921 10.857601505646064 3.605451449413660
10.094586969314921 12.838635579506064 10.622645548367659
12.286394129908921 3.707627052006064 3.605451440488660
15.110356801278922 5.688661125866064 10.622645539442660
15.052404458246922 10.982298459737065 3.764484375903660
17.876367129616920 12.963332533597063 10.781678474857658
8.788360691747034 2.175645017778196 2.371278465616999
11.612323363117033 4.156679091638196 9.388472564570998
11.554371020085034 9.450316425509195 2.530311401031998
14.378333691455033 11.431350499369197 9.547505499985999
16.570140852049033 2.300341971869196 2.530311392106999
19.394103523419034 4.281376045729196 9.547505491060999
19.336151180387034 9.575013379600195 2.689344327521999
22.160113851757032 11.556047453460195 9.706538426475998
2.202535372652121 0.450542417818120 1.125705277573221
5.026498044022121 2.431576491678120 8.142899376527222
4.968545700990121 7.725213825549119 1.284738212988221
7.792508372360120 9.706247899409121 8.301932311942220
9.984315532954120 0.575239371909120 1.284738204063221
12.808278204324122 2.556273445769120 8.301932303017221
12.750325861292122 7.849910779640119 1.443771139478221
15.574288532662120 9.830944853500119 8.460965238432220
0.744496610923614 0.460641022054757 0.504230701935832
3.568459282293614 2.441675095914757 7.521424800889832
3.510506939261614 7.735312429785757 0.663263637350832
6.334469610631613 9.716346503645758 7.680457736304833
8.526276771225614 0.585337976145757 0.663263628425832
11.350239442595614 2.566372050005757 7.680457727379832
11.292287099563614 7.860009383876757 0.822296563840832
14.116249770933614 9.841043457736756 7.839490662794832
7.372423042436621 5.233450113787866 4.171860682365735
10.196385713806620 7.214484187647866 11.189054781319735
10.138433370774621 12.508121521518866 4.330893617780736
12.962396042144620 14.489155595378866 11.348087716734735
15.154203202738621 5.358147067878866 4.330893608855735
17.978165874108619 7.339181141738866 11.348087707809736
17.920213531076620 12.632818475609866 4.489926544270735
20.744176202446621 14.613852549469865 11.507120643224734
7.510621452742761 8.074758615941288 5.498620987948650
10.334584124112761 10.055792689801288 12.515815086902649
10.276631781080761 15.349430023672287 5.657653923363650
13.100594452450760 17.330464097532289 12.674848022317651
15.292401613044760 8.199455570032288 5.657653914438650
18.116364284414761 10.180489643892288 12.674848013392650
18.058411941382762 15.474126977763287 5.816686849853649
20.882374612752763 17.455161051623286 12.833880948807650
9.558923996783353 4.541682931771098 6.561771388496723
12.382886668153352 6.522717005631098 13.578965487450724
12.324934325121353 11.816354339502098 6.720804323911723
15.148896996491352 13.797388413362100 13.737998422865722
17.340704157085352 4.666379885862098 6.720804314986723
20.164666828455353 6.647413959722098 13.737998413940723
20.106714485423353 11.941051293593098 6.879837250401723
22.930677156793351 13.922085367453096 13.897031349355721
7.737112712613078 4.632726874541501 1.093180953560728
10.561075383983077 6.613760948401501 8.110375052514728
10.503123040951078 11.907398282272501 1.252213888975728
13.327085712321077 13.888432356132501 8.269407987929728
15.518892872915078 4.757423828632501 1.252213880050729
18.342855544285079 6.738457902492502 8.269407979004729
18.284903201253080 12.032095236363501 1.411246815465728
21.108865872623078 14.013129310223501 8.428440914419728
5.742211604993728 1.204092160106626 1.789215815250458
8.566174276363729 3.185126233966626 8.806409914204458
8.508221933331729 8.478763567837625 1.948248750665458
11.332184604701727 10.459797641697627 8.965442849619459
13.523991765295728 1.328789114197626 1.948248741740458
16.347954436665727 3.309823188057626 8.965442840694458
16.290002093633728 8.603460521928625 2.107281677155458
19.113964765003729 10.584494595788625 9.124475776109458
10.231331945808174 6.449936149950875 2.795562428240971
13.055294617178173 8.430970223810874 9.812756527194971
12.997342274146174 13.724607557681875 2.954595363655971
15.821304945516173 15.705641631541877 9.971789462609971
18.013112106110174 6.574633104041875 2.954595354730971
20.837074777480176 8.555667177901874 9.971789453684970
20.779122434448176 13.849304511772875 3.113628290145971
23.603085105818174 15.830338585632873 10.130822389099970
4.690716833839535 6.558105141492701 4.253946976587753
7.514679505209536 8.539139215352701 11.271141075541752
7.456727162177535 13.832776549223700 4.412979912002753
10.280689833547534 15.813810623083700 11.430174010956753
12.472496994141535 6.682802095583701 4.412979903077753
15.296459665511534 8.663836169443702 11.430174002031752
15.238507322479535 13.957473503314700 4.572012838492753
18.062469993849536 15.938507577174700 11.589206937446752
3.843265819428412 4.762850094288477 0.745349916776391
6.667228490798411 6.743884168148477 7.762544015730390
6.609276147766412 12.037521502019477 0.904382852191390
9.433238819136411 14.018555575879478 7.921576951145391
11.625045979730412 4.887547048379477 0.904382843266391
14.449008651100412 6.868581122239477 7.921576942220391
14.391056308068412 12.162218456110477 1.063415778681390
17.215018979438412 14.143252529970475 8.080609877635389
7.006591983623676 2.405015239538526 5.297812879905077
9.830554654993676 4.386049313398526 12.315006978859078
9.772602311961677 9.679686647269525 5.456845815320078
12.596564983331675 11.660720721129525 12.474039914274076
14.788372143925676 2.529712193629526 5.456845806395077
17.612334815295675 4.510746267489526 12.474039905349077
17.554382472263676 9.804383601360525 5.615878741810077
20.378345143633677 11.785417675220526 12.633072840764076
5.685421797029448 4.715806592586004 6.145126571960557
8.509384468399448 6.696840666446004 13.162320670914557
8.451432125367448 11.990478000317005 6.304159507375557
11.275394796737448 13.971512074177005 13.321353606329556
13.467201957331447 4.840503546677004 6.304159498450557
16.291164628701448 6.821537620537004 13.321353597404556
16.233212285669449 12.115174954408005 6.463192433865556
19.057174957039450 14.096209028268003 13.480386532819555
3.127740129406673 2.989062948695552 4.442745097297543
5.951702800776673 4.970097022555551 11.459939196251543
5.893750457744673 10.263734356426552 4.601778032712543
8.717713129114673 12.244768430286552 11.618972131666542
10.909520289708672 3.113759902786552 4.601778023787543
13.733482961078673 5.094793976646551 11.618972122741543
13.675530618046674 10.388431310517552 4.760810959202542
16.499493289416673 12.369465384377550 11.778005058156541
8.620057240776100 2.876740925247323 3.053174328608466
11.444019912146100 4.857774999107323 10.070368427562466
11.386067569114100 10.151412332978323 3.212207264023466
14.210030240484100 12.132446406838323 10.229401362977466
16.401837401078101 3.001437879338323 3.212207255098466
19.225800072448102 4.982471953198323 10.229401354052465
19.167847729416103 10.276109287069323 3.371240190513466
21.991810400786100 12.257143360929323 10.388434289467465
6.229195381574137 6.898134152513625 1.990023923563919
9.053158052944138 8.879168226373626 9.007218022517918
8.995205709912138 14.172805560244626 2.149056858978919
11.819168381282136 16.153839634104628 9.166250957932920
14.010975541876137 7.022831106604626 2.149056850053920
16.834938213246136 9.003865180464626 9.166250949007919
16.776985870214137 14.297502514335626 2.308089785468920
19.600948541584138 16.278536588195625 9.325283884422920
1.457281402922400 1.050332705670070 0.804741606698193
4.281244074292400 3.031366779530070 7.821935705652193
4.223291731260400 8.325004113401070 0.963774542113192
7.047254402630400 10.306038187261070 7.980968641067193
9.239061563224400 1.175029659761070 0.963774533188193
12.063024234594399 3.156063733621070 7.980968632142192
12.005071891562400 8.449701067492070 1.122807468603193
14.829034562932399 10.430735141352070 8.140001567557192
5.243280442098034 3.743835011671082 2.806146289331676
8.067243113468034 5.724869085531083 9.823340388285676
8.009290770436035 11.018506419402081 2.965179224746676
10.833253441806033 12.999540493262083 9.982373323700676
13.025060602400034 3.868531965762082 2.965179215821676
15.849023273770033 5.849566039622083 9.982373314775675
15.791070930738034 11.143203373493082 3.124212151236676
18.615033602108035 13.124237447353082 10.141406250190675
11.990866173939944 8.346069900376399 6.473776269794915
14.814828845309943 10.327103974236399 13.490970368748915
14.756876502277944 15.620741308107398 6.632809205209916
17.580839173647945 17.601775381967400 13.650003304163915
19.772646334241944 8.470766854467399 6.632809196284915
22.596609005611946 10.451800928327399 13.650003295238914
22.538656662579946 15.745438262198398 6.791842131699915
25.362619333949944 17.726472336058400 13.809036230653915
8.169520582504854 5.702954066035362 4.472371587491319
10.993483253874853 7.683988139895362 11.489565686445317
10.935530910842854 12.977625473766363 4.631404522906319
13.759493582212853 14.958659547626363 11.648598621860319
15.951300742806854 5.827651020126362 4.631404513981319
18.775263414176855 7.808685093986362 11.648598612935318
18.717311071144856 13.102322427857363 4.790437449396318
21.541273742514853 15.083356501717361 11.807631548350319
