&GLOBAL
  PRINT_LEVEL LOW
  PROJECT ice_XVII_GXTB_k444
  RUN_TYPE ENERGY
&END GLOBAL

&FORCE_EVAL
  METHOD Quickstep
  &DFT
    &QS
      EPS_DEFAULT 1.0E-12
      METHOD xTB
      &XTB
        GFN_TYPE TBLITE
        &TBLITE
          METHOD GXTB
          ACCURACY 0.1
        &END TBLITE
        SCC_MIXER TBLITE
        &TBLITE_MIXER
          ITERATIONS 300
        &END TBLITE_MIXER
      &END XTB
    &END QS
    &KPOINTS
      SCHEME MACDONALD 4 4 4 0.375 0.375 0.375
      SYMMETRY F
      FULL_GRID T
    &END KPOINTS
    &SCF
      EPS_SCF 1.0E-9
      MAX_SCF 300
      SCF_GUESS MOPAC
      &MIXING
        METHOD DIRECT_P_MIXING
        ALPHA 0.2
      &END MIXING
      &PRINT
        &RESTART OFF
        &END RESTART
      &END PRINT
    &END SCF
  &END DFT
  &SUBSYS
    &CELL
      CANONICALIZE TRUE
      PERIODIC XYZ
      A 3.116753044394 5.376174595260 -0.020414908169
      B -3.099850034795 5.386602268284 -0.029305684194
      C -0.008721453250 0.027646837505 5.942809314706
    &END CELL
    &COORD
      SCALED
      H   0.917418215080  0.131855826927  0.195048174715
      H   0.003672097943  0.939916456627  0.528398502393
      H   0.109440633931  0.026241329627  0.861740318557
      H   0.712989062287  0.058342105467  0.260648819060
      H   0.281417440608  0.735367432777  0.594023556708
      H   0.036151458352  0.304024535141  0.927363497655
      H   0.654709009802  0.425669396050  0.431456644396
      H   0.972223191650  0.677339290788  0.764770006863
      H   0.403413135835  0.994686126558  0.098169022114
      H   0.573031983592  0.789330604437  0.280242381453
      H   0.690302183906  0.595378915946  0.613559852059
      H   0.767012047061  0.712729223341  0.946891882590
      O   0.109007692234  0.131908693731  0.989234123559
      O   0.812199459593  0.131311950491  0.322521439985
      O   0.109326295876  0.834733631641  0.655911074023
      O   0.578006725438  0.599063210647  0.490929549728
      O   0.875552580792  0.600532641560  0.824222899749
      O   0.576826786019  0.897878628246  0.157608254393
    &END COORD
  &END SUBSYS
&END FORCE_EVAL
