DMC-ICE13 ice IX; Cartesian 3x3x3 supercell
1.0
20.354709000000000 0.000000000000000 0.000000000000000
0.000000000000000 20.354709000000000 0.000000000000000
0.000000000000000 0.000000000000000 20.423748000000000
H O
648 324
Cartesian
-0.046340887490000 2.306928084127000 1.294600114476000
-0.046340887490000 2.306928084127000 8.102516114476000
-0.046340887490000 2.306928084127000 14.910432114475999
-0.046340887490000 9.091831084127000 1.294600114476000
-0.046340887490000 9.091831084127000 8.102516114476000
-0.046340887490000 9.091831084127000 14.910432114475999
-0.046340887490000 15.876734084126999 1.294600114476000
-0.046340887490000 15.876734084126999 8.102516114476000
-0.046340887490000 15.876734084126999 14.910432114475999
6.738562112509999 2.306928084127000 1.294600114476000
6.738562112509999 2.306928084127000 8.102516114476000
6.738562112509999 2.306928084127000 14.910432114475999
6.738562112509999 9.091831084127000 1.294600114476000
6.738562112509999 9.091831084127000 8.102516114476000
6.738562112509999 9.091831084127000 14.910432114475999
6.738562112509999 15.876734084126999 1.294600114476000
6.738562112509999 15.876734084126999 8.102516114476000
6.738562112509999 15.876734084126999 14.910432114475999
13.523465112509999 2.306928084127000 1.294600114476000
13.523465112509999 2.306928084127000 8.102516114476000
13.523465112509999 2.306928084127000 14.910432114475999
13.523465112509999 9.091831084127000 1.294600114476000
13.523465112509999 9.091831084127000 8.102516114476000
13.523465112509999 9.091831084127000 14.910432114475999
13.523465112509999 15.876734084126999 1.294600114476000
13.523465112509999 15.876734084126999 8.102516114476000
13.523465112509999 15.876734084126999 14.910432114475999
0.773350028843000 1.115519472036000 1.928886840280000
0.773350028843000 1.115519472036000 8.736802840279999
0.773350028843000 1.115519472036000 15.544718840280000
0.773350028843000 7.900422472036000 1.928886840280000
0.773350028843000 7.900422472036000 8.736802840279999
0.773350028843000 7.900422472036000 15.544718840280000
0.773350028843000 14.685325472036000 1.928886840280000
0.773350028843000 14.685325472036000 8.736802840279999
0.773350028843000 14.685325472036000 15.544718840280000
7.558253028843000 1.115519472036000 1.928886840280000
7.558253028843000 1.115519472036000 8.736802840279999
7.558253028843000 1.115519472036000 15.544718840280000
7.558253028843000 7.900422472036000 1.928886840280000
7.558253028843000 7.900422472036000 8.736802840279999
7.558253028843000 7.900422472036000 15.544718840280000
7.558253028843000 14.685325472036000 1.928886840280000
7.558253028843000 14.685325472036000 8.736802840279999
7.558253028843000 14.685325472036000 15.544718840280000
14.343156028843000 1.115519472036000 1.928886840280000
14.343156028843000 1.115519472036000 8.736802840279999
14.343156028843000 1.115519472036000 15.544718840280000
14.343156028843000 7.900422472036000 1.928886840280000
14.343156028843000 7.900422472036000 8.736802840279999
14.343156028843000 7.900422472036000 15.544718840280000
14.343156028843000 14.685325472036000 1.928886840280000
14.343156028843000 14.685325472036000 8.736802840279999
14.343156028843000 14.685325472036000 15.544718840280000
2.098366950810000 2.512761686438000 0.723572544144000
2.098366950810000 2.512761686438000 7.531488544144000
2.098366950810000 2.512761686438000 14.339404544143999
2.098366950810000 9.297664686438001 0.723572544144000
2.098366950810000 9.297664686438001 7.531488544144000
2.098366950810000 9.297664686438001 14.339404544143999
2.098366950810000 16.082567686438001 0.723572544144000
2.098366950810000 16.082567686438001 7.531488544144000
2.098366950810000 16.082567686438001 14.339404544143999
8.883269950810000 2.512761686438000 0.723572544144000
8.883269950810000 2.512761686438000 7.531488544144000
8.883269950810000 2.512761686438000 14.339404544143999
8.883269950810000 9.297664686438001 0.723572544144000
8.883269950810000 9.297664686438001 7.531488544144000
8.883269950810000 9.297664686438001 14.339404544143999
8.883269950810000 16.082567686438001 0.723572544144000
8.883269950810000 16.082567686438001 7.531488544144000
8.883269950810000 16.082567686438001 14.339404544143999
15.668172950810000 2.512761686438000 0.723572544144000
15.668172950810000 2.512761686438000 7.531488544144000
15.668172950810000 2.512761686438000 14.339404544143999
15.668172950810000 9.297664686438001 0.723572544144000
15.668172950810000 9.297664686438001 7.531488544144000
15.668172950810000 9.297664686438001 14.339404544143999
15.668172950810000 16.082567686438001 0.723572544144000
15.668172950810000 16.082567686438001 7.531488544144000
15.668172950810000 16.082567686438001 14.339404544143999
1.085523415873000 3.346110612510000 2.996579114476000
1.085523415873000 3.346110612510000 9.804495114476000
1.085523415873000 3.346110612510000 16.612411114476000
1.085523415873000 10.131013612509999 2.996579114476000
1.085523415873000 10.131013612509999 9.804495114476000
1.085523415873000 10.131013612509999 16.612411114476000
1.085523415873000 16.915916612509999 2.996579114476000
1.085523415873000 16.915916612509999 9.804495114476000
1.085523415873000 16.915916612509999 16.612411114476000
7.870426415873000 3.346110612510000 2.996579114476000
7.870426415873000 3.346110612510000 9.804495114476000
7.870426415873000 3.346110612510000 16.612411114476000
7.870426415873000 10.131013612509999 2.996579114476000
7.870426415873000 10.131013612509999 9.804495114476000
7.870426415873000 10.131013612509999 16.612411114476000
7.870426415873000 16.915916612509999 2.996579114476000
7.870426415873000 16.915916612509999 9.804495114476000
7.870426415873000 16.915916612509999 16.612411114476000
14.655329415873000 3.346110612510000 2.996579114476000
14.655329415873000 3.346110612510000 9.804495114476000
14.655329415873000 3.346110612510000 16.612411114476000
14.655329415873000 10.131013612509999 2.996579114476000
14.655329415873000 10.131013612509999 9.804495114476000
14.655329415873000 10.131013612509999 16.612411114476000
14.655329415873000 16.915916612509999 2.996579114476000
14.655329415873000 16.915916612509999 9.804495114476000
14.655329415873000 16.915916612509999 16.612411114476000
2.276932027964000 4.165801528843000 3.630865840280000
2.276932027964000 4.165801528843000 10.438781840279999
2.276932027964000 4.165801528843000 17.246697840280000
2.276932027964000 10.950704528843000 3.630865840280000
2.276932027964000 10.950704528843000 10.438781840279999
2.276932027964000 10.950704528843000 17.246697840280000
2.276932027964000 17.735607528842998 3.630865840280000
2.276932027964000 17.735607528842998 10.438781840279999
2.276932027964000 17.735607528842998 17.246697840280000
9.061835027963999 4.165801528843000 3.630865840280000
9.061835027963999 4.165801528843000 10.438781840279999
9.061835027963999 4.165801528843000 17.246697840280000
9.061835027963999 10.950704528843000 3.630865840280000
9.061835027963999 10.950704528843000 10.438781840279999
9.061835027963999 10.950704528843000 17.246697840280000
9.061835027963999 17.735607528842998 3.630865840280000
9.061835027963999 17.735607528842998 10.438781840279999
9.061835027963999 17.735607528842998 17.246697840280000
15.846738027963999 4.165801528843000 3.630865840280000
15.846738027963999 4.165801528843000 10.438781840279999
15.846738027963999 4.165801528843000 17.246697840280000
15.846738027963999 10.950704528843000 3.630865840280000
15.846738027963999 10.950704528843000 10.438781840279999
15.846738027963999 10.950704528843000 17.246697840280000
15.846738027963999 17.735607528842998 3.630865840280000
15.846738027963999 17.735607528842998 10.438781840279999
15.846738027963999 17.735607528842998 17.246697840280000
0.879689813562000 5.490818450810000 2.425551544144000
0.879689813562000 5.490818450810000 9.233467544144000
0.879689813562000 5.490818450810000 16.041383544144001
0.879689813562000 12.275721450810000 2.425551544144000
0.879689813562000 12.275721450810000 9.233467544144000
0.879689813562000 12.275721450810000 16.041383544144001
0.879689813562000 19.060624450810000 2.425551544144000
0.879689813562000 19.060624450810000 9.233467544144000
0.879689813562000 19.060624450810000 16.041383544144001
7.664592813562000 5.490818450810000 2.425551544144000
7.664592813562000 5.490818450810000 9.233467544144000
7.664592813562000 5.490818450810000 16.041383544144001
7.664592813562000 12.275721450810000 2.425551544144000
7.664592813562000 12.275721450810000 9.233467544144000
7.664592813562000 12.275721450810000 16.041383544144001
7.664592813562000 19.060624450810000 2.425551544144000
7.664592813562000 19.060624450810000 9.233467544144000
7.664592813562000 19.060624450810000 16.041383544144001
14.449495813562001 5.490818450810000 2.425551544144000
14.449495813562001 5.490818450810000 9.233467544144000
14.449495813562001 5.490818450810000 16.041383544144001
14.449495813562001 12.275721450810000 2.425551544144000
14.449495813562001 12.275721450810000 9.233467544144000
14.449495813562001 12.275721450810000 16.041383544144001
14.449495813562001 19.060624450810000 2.425551544144000
14.449495813562001 19.060624450810000 9.233467544144000
14.449495813562001 19.060624450810000 16.041383544144001
5.699379584127000 3.438792387490000 -0.407378885524000
5.699379584127000 3.438792387490000 6.400537114475999
5.699379584127000 3.438792387490000 13.208453114475999
5.699379584127000 10.223695387490000 -0.407378885524000
5.699379584127000 10.223695387490000 6.400537114475999
5.699379584127000 10.223695387490000 13.208453114475999
5.699379584127000 17.008598387490000 -0.407378885524000
5.699379584127000 17.008598387490000 6.400537114475999
5.699379584127000 17.008598387490000 13.208453114475999
12.484282584127000 3.438792387490000 -0.407378885524000
12.484282584127000 3.438792387490000 6.400537114475999
12.484282584127000 3.438792387490000 13.208453114475999
12.484282584127000 10.223695387490000 -0.407378885524000
12.484282584127000 10.223695387490000 6.400537114475999
12.484282584127000 10.223695387490000 13.208453114475999
12.484282584127000 17.008598387490000 -0.407378885524000
12.484282584127000 17.008598387490000 6.400537114475999
12.484282584127000 17.008598387490000 13.208453114475999
19.269185584127001 3.438792387490000 -0.407378885524000
19.269185584127001 3.438792387490000 6.400537114475999
19.269185584127001 3.438792387490000 13.208453114475999
19.269185584127001 10.223695387490000 -0.407378885524000
19.269185584127001 10.223695387490000 6.400537114475999
19.269185584127001 10.223695387490000 13.208453114475999
19.269185584127001 17.008598387490000 -0.407378885524000
19.269185584127001 17.008598387490000 6.400537114475999
19.269185584127001 17.008598387490000 13.208453114475999
4.507970972036000 2.619101471157000 0.226907840280000
4.507970972036000 2.619101471157000 7.034823840280000
4.507970972036000 2.619101471157000 13.842739840280000
4.507970972036000 9.404004471157000 0.226907840280000
4.507970972036000 9.404004471157000 7.034823840280000
4.507970972036000 9.404004471157000 13.842739840280000
4.507970972036000 16.188907471157002 0.226907840280000
4.507970972036000 16.188907471157002 7.034823840280000
4.507970972036000 16.188907471157002 13.842739840280000
11.292873972036000 2.619101471157000 0.226907840280000
11.292873972036000 2.619101471157000 7.034823840280000
11.292873972036000 2.619101471157000 13.842739840280000
11.292873972036000 9.404004471157000 0.226907840280000
11.292873972036000 9.404004471157000 7.034823840280000
11.292873972036000 9.404004471157000 13.842739840280000
11.292873972036000 16.188907471157002 0.226907840280000
11.292873972036000 16.188907471157002 7.034823840280000
11.292873972036000 16.188907471157002 13.842739840280000
18.077776972035998 2.619101471157000 0.226907840280000
18.077776972035998 2.619101471157000 7.034823840280000
18.077776972035998 2.619101471157000 13.842739840280000
18.077776972035998 9.404004471157000 0.226907840280000
18.077776972035998 9.404004471157000 7.034823840280000
18.077776972035998 9.404004471157000 13.842739840280000
18.077776972035998 16.188907471157002 0.226907840280000
18.077776972035998 16.188907471157002 7.034823840280000
18.077776972035998 16.188907471157002 13.842739840280000
5.905213186438000 1.294084549190000 5.829509544144000
5.905213186438000 1.294084549190000 12.637425544144000
5.905213186438000 1.294084549190000 19.445341544144000
5.905213186438000 8.078987549190000 5.829509544144000
5.905213186438000 8.078987549190000 12.637425544144000
5.905213186438000 8.078987549190000 19.445341544144000
5.905213186438000 14.863890549190000 5.829509544144000
5.905213186438000 14.863890549190000 12.637425544144000
5.905213186438000 14.863890549190000 19.445341544144000
12.690116186438001 1.294084549190000 5.829509544144000
12.690116186438001 1.294084549190000 12.637425544144000
12.690116186438001 1.294084549190000 19.445341544144000
12.690116186438001 8.078987549190000 5.829509544144000
12.690116186438001 8.078987549190000 12.637425544144000
12.690116186438001 8.078987549190000 19.445341544144000
12.690116186438001 14.863890549190000 5.829509544144000
12.690116186438001 14.863890549190000 12.637425544144000
12.690116186438001 14.863890549190000 19.445341544144000
19.475019186438001 1.294084549190000 5.829509544144000
19.475019186438001 1.294084549190000 12.637425544144000
19.475019186438001 1.294084549190000 19.445341544144000
19.475019186438001 8.078987549190000 5.829509544144000
19.475019186438001 8.078987549190000 12.637425544144000
19.475019186438001 8.078987549190000 19.445341544144000
19.475019186438001 14.863890549190000 5.829509544144000
19.475019186438001 14.863890549190000 12.637425544144000
19.475019186438001 14.863890549190000 19.445341544144000
3.438792387490000 5.699379584127000 7.215294885523999
3.438792387490000 5.699379584127000 14.023210885523998
3.438792387490000 5.699379584127000 20.831126885524000
3.438792387490000 12.484282584127000 7.215294885523999
3.438792387490000 12.484282584127000 14.023210885523998
3.438792387490000 12.484282584127000 20.831126885524000
3.438792387490000 19.269185584127001 7.215294885523999
3.438792387490000 19.269185584127001 14.023210885523998
3.438792387490000 19.269185584127001 20.831126885524000
10.223695387490000 5.699379584127000 7.215294885523999
10.223695387490000 5.699379584127000 14.023210885523998
10.223695387490000 5.699379584127000 20.831126885524000
10.223695387490000 12.484282584127000 7.215294885523999
10.223695387490000 12.484282584127000 14.023210885523998
10.223695387490000 12.484282584127000 20.831126885524000
10.223695387490000 19.269185584127001 7.215294885523999
10.223695387490000 19.269185584127001 14.023210885523998
10.223695387490000 19.269185584127001 20.831126885524000
17.008598387490000 5.699379584127000 7.215294885523999
17.008598387490000 5.699379584127000 14.023210885523998
17.008598387490000 5.699379584127000 20.831126885524000
17.008598387490000 12.484282584127000 7.215294885523999
17.008598387490000 12.484282584127000 14.023210885523998
17.008598387490000 12.484282584127000 20.831126885524000
17.008598387490000 19.269185584127001 7.215294885523999
17.008598387490000 19.269185584127001 14.023210885523998
17.008598387490000 19.269185584127001 20.831126885524000
2.619101471157000 4.507970972036000 6.581008159720000
2.619101471157000 4.507970972036000 13.388924159719998
2.619101471157000 4.507970972036000 20.196840159719997
2.619101471157000 11.292873972036000 6.581008159720000
2.619101471157000 11.292873972036000 13.388924159719998
2.619101471157000 11.292873972036000 20.196840159719997
2.619101471157000 18.077776972035998 6.581008159720000
2.619101471157000 18.077776972035998 13.388924159719998
2.619101471157000 18.077776972035998 20.196840159719997
9.404004471157000 4.507970972036000 6.581008159720000
9.404004471157000 4.507970972036000 13.388924159719998
9.404004471157000 4.507970972036000 20.196840159719997
9.404004471157000 11.292873972036000 6.581008159720000
9.404004471157000 11.292873972036000 13.388924159719998
9.404004471157000 11.292873972036000 20.196840159719997
9.404004471157000 18.077776972035998 6.581008159720000
9.404004471157000 18.077776972035998 13.388924159719998
9.404004471157000 18.077776972035998 20.196840159719997
16.188907471157002 4.507970972036000 6.581008159720000
16.188907471157002 4.507970972036000 13.388924159719998
16.188907471157002 4.507970972036000 20.196840159719997
16.188907471157002 11.292873972036000 6.581008159720000
16.188907471157002 11.292873972036000 13.388924159719998
16.188907471157002 11.292873972036000 20.196840159719997
16.188907471157002 18.077776972035998 6.581008159720000
16.188907471157002 18.077776972035998 13.388924159719998
16.188907471157002 18.077776972035998 20.196840159719997
1.294084549190000 5.905213186438000 0.978406455856000
1.294084549190000 5.905213186438000 7.786322455855999
1.294084549190000 5.905213186438000 14.594238455855999
1.294084549190000 12.690116186438001 0.978406455856000
1.294084549190000 12.690116186438001 7.786322455855999
1.294084549190000 12.690116186438001 14.594238455855999
1.294084549190000 19.475019186438001 0.978406455856000
1.294084549190000 19.475019186438001 7.786322455855999
1.294084549190000 19.475019186438001 14.594238455855999
8.078987549190000 5.905213186438000 0.978406455856000
8.078987549190000 5.905213186438000 7.786322455855999
8.078987549190000 5.905213186438000 14.594238455855999
8.078987549190000 12.690116186438001 0.978406455856000
8.078987549190000 12.690116186438001 7.786322455855999
8.078987549190000 12.690116186438001 14.594238455855999
8.078987549190000 19.475019186438001 0.978406455856000
8.078987549190000 19.475019186438001 7.786322455855999
8.078987549190000 19.475019186438001 14.594238455855999
14.863890549190000 5.905213186438000 0.978406455856000
14.863890549190000 5.905213186438000 7.786322455855999
14.863890549190000 5.905213186438000 14.594238455855999
14.863890549190000 12.690116186438001 0.978406455856000
14.863890549190000 12.690116186438001 7.786322455855999
14.863890549190000 12.690116186438001 14.594238455855999
14.863890549190000 19.475019186438001 0.978406455856000
14.863890549190000 19.475019186438001 7.786322455855999
14.863890549190000 19.475019186438001 14.594238455855999
3.346110612510000 1.085523415873000 3.811336885524000
3.346110612510000 1.085523415873000 10.619252885524000
3.346110612510000 1.085523415873000 17.427168885524001
3.346110612510000 7.870426415873000 3.811336885524000
3.346110612510000 7.870426415873000 10.619252885524000
3.346110612510000 7.870426415873000 17.427168885524001
3.346110612510000 14.655329415873000 3.811336885524000
3.346110612510000 14.655329415873000 10.619252885524000
3.346110612510000 14.655329415873000 17.427168885524001
10.131013612509999 1.085523415873000 3.811336885524000
10.131013612509999 1.085523415873000 10.619252885524000
10.131013612509999 1.085523415873000 17.427168885524001
10.131013612509999 7.870426415873000 3.811336885524000
10.131013612509999 7.870426415873000 10.619252885524000
10.131013612509999 7.870426415873000 17.427168885524001
10.131013612509999 14.655329415873000 3.811336885524000
10.131013612509999 14.655329415873000 10.619252885524000
10.131013612509999 14.655329415873000 17.427168885524001
16.915916612509999 1.085523415873000 3.811336885524000
16.915916612509999 1.085523415873000 10.619252885524000
16.915916612509999 1.085523415873000 17.427168885524001
16.915916612509999 7.870426415873000 3.811336885524000
16.915916612509999 7.870426415873000 10.619252885524000
16.915916612509999 7.870426415873000 17.427168885524001
16.915916612509999 14.655329415873000 3.811336885524000
16.915916612509999 14.655329415873000 10.619252885524000
16.915916612509999 14.655329415873000 17.427168885524001
4.165801528843000 2.276932027964000 3.177050159720000
4.165801528843000 2.276932027964000 9.984966159719999
4.165801528843000 2.276932027964000 16.792882159719998
4.165801528843000 9.061835027963999 3.177050159720000
4.165801528843000 9.061835027963999 9.984966159719999
4.165801528843000 9.061835027963999 16.792882159719998
4.165801528843000 15.846738027963999 3.177050159720000
4.165801528843000 15.846738027963999 9.984966159719999
4.165801528843000 15.846738027963999 16.792882159719998
10.950704528843000 2.276932027964000 3.177050159720000
10.950704528843000 2.276932027964000 9.984966159719999
10.950704528843000 2.276932027964000 16.792882159719998
10.950704528843000 9.061835027963999 3.177050159720000
10.950704528843000 9.061835027963999 9.984966159719999
10.950704528843000 9.061835027963999 16.792882159719998
10.950704528843000 15.846738027963999 3.177050159720000
10.950704528843000 15.846738027963999 9.984966159719999
10.950704528843000 15.846738027963999 16.792882159719998
17.735607528842998 2.276932027964000 3.177050159720000
17.735607528842998 2.276932027964000 9.984966159719999
17.735607528842998 2.276932027964000 16.792882159719998
17.735607528842998 9.061835027963999 3.177050159720000
17.735607528842998 9.061835027963999 9.984966159719999
17.735607528842998 9.061835027963999 16.792882159719998
17.735607528842998 15.846738027963999 3.177050159720000
17.735607528842998 15.846738027963999 9.984966159719999
17.735607528842998 15.846738027963999 16.792882159719998
5.490818450810000 0.879689813562000 4.382364455855999
5.490818450810000 0.879689813562000 11.190280455855998
5.490818450810000 0.879689813562000 17.998196455855997
5.490818450810000 7.664592813562000 4.382364455855999
5.490818450810000 7.664592813562000 11.190280455855998
5.490818450810000 7.664592813562000 17.998196455855997
5.490818450810000 14.449495813562001 4.382364455855999
5.490818450810000 14.449495813562001 11.190280455855998
5.490818450810000 14.449495813562001 17.998196455855997
12.275721450810000 0.879689813562000 4.382364455855999
12.275721450810000 0.879689813562000 11.190280455855998
12.275721450810000 0.879689813562000 17.998196455855997
12.275721450810000 7.664592813562000 4.382364455855999
12.275721450810000 7.664592813562000 11.190280455855998
12.275721450810000 7.664592813562000 17.998196455855997
12.275721450810000 14.449495813562001 4.382364455855999
12.275721450810000 14.449495813562001 11.190280455855998
12.275721450810000 14.449495813562001 17.998196455855997
19.060624450810000 0.879689813562000 4.382364455855999
19.060624450810000 0.879689813562000 11.190280455855998
19.060624450810000 0.879689813562000 17.998196455855997
19.060624450810000 7.664592813562000 4.382364455855999
19.060624450810000 7.664592813562000 11.190280455855998
19.060624450810000 7.664592813562000 17.998196455855997
19.060624450810000 14.449495813562001 4.382364455855999
19.060624450810000 14.449495813562001 11.190280455855998
19.060624450810000 14.449495813562001 17.998196455855997
2.512761686438000 2.098366950810000 -0.723572544144000
2.512761686438000 2.098366950810000 6.084343455856000
2.512761686438000 2.098366950810000 12.892259455855999
2.512761686438000 8.883269950810000 -0.723572544144000
2.512761686438000 8.883269950810000 6.084343455856000
2.512761686438000 8.883269950810000 12.892259455855999
2.512761686438000 15.668172950810000 -0.723572544144000
2.512761686438000 15.668172950810000 6.084343455856000
2.512761686438000 15.668172950810000 12.892259455855999
9.297664686438001 2.098366950810000 -0.723572544144000
9.297664686438001 2.098366950810000 6.084343455856000
9.297664686438001 2.098366950810000 12.892259455855999
9.297664686438001 8.883269950810000 -0.723572544144000
9.297664686438001 8.883269950810000 6.084343455856000
9.297664686438001 8.883269950810000 12.892259455855999
9.297664686438001 15.668172950810000 -0.723572544144000
9.297664686438001 15.668172950810000 6.084343455856000
9.297664686438001 15.668172950810000 12.892259455855999
16.082567686438001 2.098366950810000 -0.723572544144000
16.082567686438001 2.098366950810000 6.084343455856000
16.082567686438001 2.098366950810000 12.892259455855999
16.082567686438001 8.883269950810000 -0.723572544144000
16.082567686438001 8.883269950810000 6.084343455856000
16.082567686438001 8.883269950810000 12.892259455855999
16.082567686438001 15.668172950810000 -0.723572544144000
16.082567686438001 15.668172950810000 6.084343455856000
16.082567686438001 15.668172950810000 12.892259455855999
4.477974915873000 6.831243887489999 2.109357885524000
4.477974915873000 6.831243887489999 8.917273885524001
4.477974915873000 6.831243887489999 15.725189885523999
4.477974915873000 13.616146887489998 2.109357885524000
4.477974915873000 13.616146887489998 8.917273885524001
4.477974915873000 13.616146887489998 15.725189885523999
4.477974915873000 20.401049887489997 2.109357885524000
4.477974915873000 20.401049887489997 8.917273885524001
4.477974915873000 20.401049887489997 15.725189885523999
11.262877915873000 6.831243887489999 2.109357885524000
11.262877915873000 6.831243887489999 8.917273885524001
11.262877915873000 6.831243887489999 15.725189885523999
11.262877915873000 13.616146887489998 2.109357885524000
11.262877915873000 13.616146887489998 8.917273885524001
11.262877915873000 13.616146887489998 15.725189885523999
11.262877915873000 20.401049887489997 2.109357885524000
11.262877915873000 20.401049887489997 8.917273885524001
11.262877915873000 20.401049887489997 15.725189885523999
18.047780915872998 6.831243887489999 2.109357885524000
18.047780915872998 6.831243887489999 8.917273885524001
18.047780915872998 6.831243887489999 15.725189885523999
18.047780915872998 13.616146887489998 2.109357885524000
18.047780915872998 13.616146887489998 8.917273885524001
18.047780915872998 13.616146887489998 15.725189885523999
18.047780915872998 20.401049887489997 2.109357885524000
18.047780915872998 20.401049887489997 8.917273885524001
18.047780915872998 20.401049887489997 15.725189885523999
5.669383527963999 6.011552971157000 1.475071159720000
5.669383527963999 6.011552971157000 8.282987159719999
5.669383527963999 6.011552971157000 15.090903159720000
5.669383527963999 12.796455971157000 1.475071159720000
5.669383527963999 12.796455971157000 8.282987159719999
5.669383527963999 12.796455971157000 15.090903159720000
5.669383527963999 19.581358971157002 1.475071159720000
5.669383527963999 19.581358971157002 8.282987159719999
5.669383527963999 19.581358971157002 15.090903159720000
12.454286527963998 6.011552971157000 1.475071159720000
12.454286527963998 6.011552971157000 8.282987159719999
12.454286527963998 6.011552971157000 15.090903159720000
12.454286527963998 12.796455971157000 1.475071159720000
12.454286527963998 12.796455971157000 8.282987159719999
12.454286527963998 12.796455971157000 15.090903159720000
12.454286527963998 19.581358971157002 1.475071159720000
12.454286527963998 19.581358971157002 8.282987159719999
12.454286527963998 19.581358971157002 15.090903159720000
19.239189527963998 6.011552971157000 1.475071159720000
19.239189527963998 6.011552971157000 8.282987159719999
19.239189527963998 6.011552971157000 15.090903159720000
19.239189527963998 12.796455971157000 1.475071159720000
19.239189527963998 12.796455971157000 8.282987159719999
19.239189527963998 12.796455971157000 15.090903159720000
19.239189527963998 19.581358971157002 1.475071159720000
19.239189527963998 19.581358971157002 8.282987159719999
19.239189527963998 19.581358971157002 15.090903159720000
4.272141313562000 4.686536049190000 2.680385455856000
4.272141313562000 4.686536049190000 9.488301455856000
4.272141313562000 4.686536049190000 16.296217455855999
4.272141313562000 11.471439049190000 2.680385455856000
4.272141313562000 11.471439049190000 9.488301455856000
4.272141313562000 11.471439049190000 16.296217455855999
4.272141313562000 18.256342049190000 2.680385455856000
4.272141313562000 18.256342049190000 9.488301455856000
4.272141313562000 18.256342049190000 16.296217455855999
11.057044313561999 4.686536049190000 2.680385455856000
11.057044313561999 4.686536049190000 9.488301455856000
11.057044313561999 4.686536049190000 16.296217455855999
11.057044313561999 11.471439049190000 2.680385455856000
11.057044313561999 11.471439049190000 9.488301455856000
11.057044313561999 11.471439049190000 16.296217455855999
11.057044313561999 18.256342049190000 2.680385455856000
11.057044313561999 18.256342049190000 9.488301455856000
11.057044313561999 18.256342049190000 16.296217455855999
17.841947313561999 4.686536049190000 2.680385455856000
17.841947313561999 4.686536049190000 9.488301455856000
17.841947313561999 4.686536049190000 16.296217455855999
17.841947313561999 11.471439049190000 2.680385455856000
17.841947313561999 11.471439049190000 9.488301455856000
17.841947313561999 11.471439049190000 16.296217455855999
17.841947313561999 18.256342049190000 2.680385455856000
17.841947313561999 18.256342049190000 9.488301455856000
17.841947313561999 18.256342049190000 16.296217455855999
6.831243887489999 4.477974915873000 4.698558114476000
6.831243887489999 4.477974915873000 11.506474114475999
6.831243887489999 4.477974915873000 18.314390114475998
6.831243887489999 11.262877915873000 4.698558114476000
6.831243887489999 11.262877915873000 11.506474114475999
6.831243887489999 11.262877915873000 18.314390114475998
6.831243887489999 18.047780915872998 4.698558114476000
6.831243887489999 18.047780915872998 11.506474114475999
6.831243887489999 18.047780915872998 18.314390114475998
13.616146887489998 4.477974915873000 4.698558114476000
13.616146887489998 4.477974915873000 11.506474114475999
13.616146887489998 4.477974915873000 18.314390114475998
13.616146887489998 11.262877915873000 4.698558114476000
13.616146887489998 11.262877915873000 11.506474114475999
13.616146887489998 11.262877915873000 18.314390114475998
13.616146887489998 18.047780915872998 4.698558114476000
13.616146887489998 18.047780915872998 11.506474114475999
13.616146887489998 18.047780915872998 18.314390114475998
20.401049887489997 4.477974915873000 4.698558114476000
20.401049887489997 4.477974915873000 11.506474114475999
20.401049887489997 4.477974915873000 18.314390114475998
20.401049887489997 11.262877915873000 4.698558114476000
20.401049887489997 11.262877915873000 11.506474114475999