DMC-ICE13 ice Ih; Cartesian 1x1x1 supercell
1.0
7.678093000000000 0.000000000000000 0.000000000000000
3.839046000000000 6.649423000000000 0.000000000000000
0.000000000000000 0.000000000000000 7.234567000000000
H O
24 12
Cartesian
1.285051545679000 2.225681567714000 1.445459252033000
5.107905114896000 0.000066494230000 1.445321795260000
5.123932801408000 4.423601794403000 1.445401375497000
6.409272275576000 6.649263413848000 5.062648702662000
10.231822560133999 4.423455507097000 5.062749986600000
6.392914431050000 2.225927596365000 5.062742752033000
4.180445227149000 0.000039896538000 0.141681760128000
1.748677774897000 3.028945164960000 0.141833686035000
5.587693518045000 3.620477835040000 0.141754105798000
7.336670738579000 6.649290011540000 3.758965260128000
9.768230882330000 3.620251754658000 3.759081013200000
5.929199782976999 3.028971762652000 3.759023136664001
5.927337633445999 5.848041189462999 7.122329927562000
5.927368225305000 7.450725017460999 7.122293754727001
9.778776621156000 5.241507421094999 7.122351631263000
7.327783679793999 2.209304038865000 7.122416742366000
5.939811029391000 1.408002021404000 7.122329927562000
1.738147392256000 1.407702797369000 3.505126007799000
9.428812815141999 7.450718368037999 3.505060896696000
9.428778384237999 5.848014591770999 3.505003020160000
4.189117299324000 4.440105662289000 3.505111538665000
5.577105305911999 5.241420978596000 3.505046427562000
0.350182299433000 2.209084607906000 3.505140476933000
11.166718679698000 4.440152208250000 7.122366100397000
1.272060214017000 2.203153322590000 0.445765080272000
5.133903137793000 0.000079793076000 0.445613154365000
5.110968339678000 4.446203183180000 0.445707203736000
6.383228184122000 6.649236816156000 4.062940061767001
6.405917283249000 2.203273012204000 4.063048580272000
6.416366833500000 6.649369804616000 6.776951698982000
6.389290370680000 2.232231249369000 6.777110859456000
1.288687122246000 2.231912077065000 3.159849063157000
8.939837361738999 6.649389752884999 3.159624791580000
5.127599091294000 4.417238296592000 3.159769482920000
10.244848443211000 4.446030298181999 4.063055814839000
10.228194661658000 4.417251595438000 6.817125321878670
