&GLOBAL
  PRINT_LEVEL MEDIUM
  PROJECT H2O_L20
  RUN_TYPE ENERGY_FORCE
&END GLOBAL

&FORCE_EVAL
  METHOD QUICKSTEP
  &DFT
    &QS
      EPS_DEFAULT 1.0E-12
      METHOD xTB
      &XTB
        GFN_TYPE TBLITE
        SCC_MIXER TBLITE
        &TBLITE_MIXER
          ITERATIONS 300
          SOLVER GVD
        &END TBLITE_MIXER
        &TBLITE
          ACCURACY 0.1
          METHOD GXTB
        &END TBLITE
      &END XTB
    &END QS
    &SCF
      EPS_SCF 1.0E-10
      MAX_SCF 300
      SCF_GUESS MOPAC
      &MIXING
        ALPHA 0.2
        METHOD DIRECT_P_MIXING
      &END MIXING
      &PRINT
        &RESTART OFF
        &END RESTART
      &END PRINT
    &END SCF
  &END DFT
  &SUBSYS
    &CELL
      ABC 20 20 20
      PERIODIC XYZ
    &END CELL
    &COORD
      UNIT BOHR
      H  -2.2988205177250001E-002  0.0000000000000000  -1.7618895424609600
      H   1.6536950272314599       0.0000000000000000   0.60848805100320003
      O  -0.10273226709885000      0.0000000000000000   7.2662693557249997E-002
    &END COORD
  &END SUBSYS
  &PRINT
    &FORCES ON
    &END FORCES
  &END PRINT
&END FORCE_EVAL
