&GLOBAL
  PRINT_LEVEL LOW
  PROJECT cyanamide_GFN2_k111_energy
  RUN_TYPE ENERGY
&END GLOBAL

&FORCE_EVAL
  METHOD Quickstep
  STRESS_TENSOR ANALYTICAL
  &DFT
    &QS
      EPS_DEFAULT 1.0E-12
      METHOD xTB
      &XTB
        GFN_TYPE TBLITE
        &TBLITE
          METHOD GFN2
          ACCURACY 0.1
        &END TBLITE
      &END XTB
    &END QS
    &KPOINTS
      SCHEME MACDONALD 1 1 1 0.0 0.0 0.0
      FULL_GRID T
    &END KPOINTS
    &SCF
      EPS_SCF 1.0E-9
      MAX_SCF 300
      SCF_GUESS MOPAC
      &MIXING
        METHOD DIRECT_P_MIXING
        ALPHA 0.2
      &END MIXING
    &END SCF
  &END DFT
  &SUBSYS
    &CELL
      PERIODIC XYZ
      A 6.856000000000 0.000000000000 0.000000000000
      B 0.000000000000 6.628000000000 0.000000000000
      C 0.000000000000 0.000000000000 9.147000000000
    &END CELL
    &COORD
      SCALED
      N   0.145900000000  0.169900000000  0.101790000000
      N   0.854100000000  0.830100000000  0.898210000000
      N   0.645900000000  0.169900000000  0.398210000000
      N   0.145900000000  0.330100000000  0.601790000000
      N   0.645900000000  0.330100000000  0.898210000000
      N   0.354100000000  0.669900000000  0.101790000000
      N   0.854100000000  0.669900000000  0.398210000000
      N   0.354100000000  0.830100000000  0.601790000000
      N   0.140100000000  0.012500000000  0.346090000000
      N   0.859900000000  0.987500000000  0.653910000000
      N   0.640100000000  0.012500000000  0.153910000000
      N   0.140100000000  0.487500000000  0.846090000000
      N   0.640100000000  0.487500000000  0.653910000000
      N   0.359900000000  0.512500000000  0.346090000000
      N   0.859900000000  0.512500000000  0.153910000000
      N   0.359900000000  0.987500000000  0.846090000000
      C   0.141200000000  0.083700000000  0.231200000000
      C   0.858800000000  0.916300000000  0.768800000000
      C   0.641200000000  0.083700000000  0.268800000000
      C   0.141200000000  0.416300000000  0.731200000000
      C   0.641200000000  0.416300000000  0.768800000000
      C   0.358800000000  0.583700000000  0.231200000000
      C   0.858800000000  0.583700000000  0.268800000000
      C   0.358800000000  0.916300000000  0.731200000000
      H   0.197000000000  0.111000000000  0.022000000000
      H   0.803000000000  0.889000000000  0.978000000000
      H   0.697000000000  0.111000000000  0.478000000000
      H   0.197000000000  0.389000000000  0.522000000000
      H   0.697000000000  0.389000000000  0.978000000000
      H   0.303000000000  0.611000000000  0.022000000000
      H   0.803000000000  0.611000000000  0.478000000000
      H   0.303000000000  0.889000000000  0.522000000000
      H   0.059000000000  0.266000000000  0.087000000000
      H   0.941000000000  0.734000000000  0.913000000000
      H   0.559000000000  0.266000000000  0.413000000000
      H   0.059000000000  0.234000000000  0.587000000000
      H   0.559000000000  0.234000000000  0.913000000000
      H   0.441000000000  0.766000000000  0.087000000000
      H   0.941000000000  0.766000000000  0.413000000000
      H   0.441000000000  0.734000000000  0.587000000000
    &END COORD
  &END SUBSYS
&END FORCE_EVAL
