DMC-ICE13 ice IX; Cartesian 2x2x2 supercell
1.0
13.569806000000000 0.000000000000000 0.000000000000000
0.000000000000000 13.569806000000000 0.000000000000000
0.000000000000000 0.000000000000000 13.615831999999999
H O
192 96
Cartesian
-0.046340887490000 2.306928084127000 1.294600114476000
-0.046340887490000 2.306928084127000 8.102516114476000
-0.046340887490000 9.091831084127000 1.294600114476000
-0.046340887490000 9.091831084127000 8.102516114476000
6.738562112509999 2.306928084127000 1.294600114476000
6.738562112509999 2.306928084127000 8.102516114476000
6.738562112509999 9.091831084127000 1.294600114476000
6.738562112509999 9.091831084127000 8.102516114476000
0.773350028843000 1.115519472036000 1.928886840280000
0.773350028843000 1.115519472036000 8.736802840279999
0.773350028843000 7.900422472036000 1.928886840280000
0.773350028843000 7.900422472036000 8.736802840279999
7.558253028843000 1.115519472036000 1.928886840280000
7.558253028843000 1.115519472036000 8.736802840279999
7.558253028843000 7.900422472036000 1.928886840280000
7.558253028843000 7.900422472036000 8.736802840279999
2.098366950810000 2.512761686438000 0.723572544144000
2.098366950810000 2.512761686438000 7.531488544144000
2.098366950810000 9.297664686438001 0.723572544144000
2.098366950810000 9.297664686438001 7.531488544144000
8.883269950810000 2.512761686438000 0.723572544144000
8.883269950810000 2.512761686438000 7.531488544144000
8.883269950810000 9.297664686438001 0.723572544144000
8.883269950810000 9.297664686438001 7.531488544144000
1.085523415873000 3.346110612510000 2.996579114476000
1.085523415873000 3.346110612510000 9.804495114476000
1.085523415873000 10.131013612509999 2.996579114476000
1.085523415873000 10.131013612509999 9.804495114476000
7.870426415873000 3.346110612510000 2.996579114476000
7.870426415873000 3.346110612510000 9.804495114476000
7.870426415873000 10.131013612509999 2.996579114476000
7.870426415873000 10.131013612509999 9.804495114476000
2.276932027964000 4.165801528843000 3.630865840280000
2.276932027964000 4.165801528843000 10.438781840279999
2.276932027964000 10.950704528843000 3.630865840280000
2.276932027964000 10.950704528843000 10.438781840279999
9.061835027963999 4.165801528843000 3.630865840280000
9.061835027963999 4.165801528843000 10.438781840279999
9.061835027963999 10.950704528843000 3.630865840280000
9.061835027963999 10.950704528843000 10.438781840279999
0.879689813562000 5.490818450810000 2.425551544144000
0.879689813562000 5.490818450810000 9.233467544143998
0.879689813562000 12.275721450810000 2.425551544144000
0.879689813562000 12.275721450810000 9.233467544143998
7.664592813562000 5.490818450810000 2.425551544144000
7.664592813562000 5.490818450810000 9.233467544143998
7.664592813562000 12.275721450810000 2.425551544144000
7.664592813562000 12.275721450810000 9.233467544143998
5.699379584127000 3.438792387490000 -0.407378885524000
5.699379584127000 3.438792387490000 6.400537114475999
5.699379584127000 10.223695387490000 -0.407378885524000
5.699379584127000 10.223695387490000 6.400537114475999
12.484282584127000 3.438792387490000 -0.407378885524000
12.484282584127000 3.438792387490000 6.400537114475999
12.484282584127000 10.223695387490000 -0.407378885524000
12.484282584127000 10.223695387490000 6.400537114475999
4.507970972036000 2.619101471157000 0.226907840280000
4.507970972036000 2.619101471157000 7.034823840280000
4.507970972036000 9.404004471157000 0.226907840280000
4.507970972036000 9.404004471157000 7.034823840280000
11.292873972036000 2.619101471157000 0.226907840280000
11.292873972036000 2.619101471157000 7.034823840280000
11.292873972036000 9.404004471157000 0.226907840280000
11.292873972036000 9.404004471157000 7.034823840280000
5.905213186438000 1.294084549190000 5.829509544144000
5.905213186438000 1.294084549190000 12.637425544144000
5.905213186438000 8.078987549190000 5.829509544144000
5.905213186438000 8.078987549190000 12.637425544144000
12.690116186438001 1.294084549190000 5.829509544144000
12.690116186438001 1.294084549190000 12.637425544144000
12.690116186438001 8.078987549190000 5.829509544144000
12.690116186438001 8.078987549190000 12.637425544144000
3.438792387490000 5.699379584127000 7.215294885523999
3.438792387490000 5.699379584127000 14.023210885523998
3.438792387490000 12.484282584127000 7.215294885523999
3.438792387490000 12.484282584127000 14.023210885523998
10.223695387490000 5.699379584127000 7.215294885523999
10.223695387490000 5.699379584127000 14.023210885523998
10.223695387490000 12.484282584127000 7.215294885523999
10.223695387490000 12.484282584127000 14.023210885523998
2.619101471157000 4.507970972036000 6.581008159720000
2.619101471157000 4.507970972036000 13.388924159719998
2.619101471157000 11.292873972036000 6.581008159720000
2.619101471157000 11.292873972036000 13.388924159719998
9.404004471157000 4.507970972036000 6.581008159720000
9.404004471157000 4.507970972036000 13.388924159719998
9.404004471157000 11.292873972036000 6.581008159720000
9.404004471157000 11.292873972036000 13.388924159719998
1.294084549190000 5.905213186438000 0.978406455856000
1.294084549190000 5.905213186438000 7.786322455855999
1.294084549190000 12.690116186438001 0.978406455856000
1.294084549190000 12.690116186438001 7.786322455855999
8.078987549190000 5.905213186438000 0.978406455856000
8.078987549190000 5.905213186438000 7.786322455855999
8.078987549190000 12.690116186438001 0.978406455856000
8.078987549190000 12.690116186438001 7.786322455855999
3.346110612510000 1.085523415873000 3.811336885524000
3.346110612510000 1.085523415873000 10.619252885523998
3.346110612510000 7.870426415873000 3.811336885524000
3.346110612510000 7.870426415873000 10.619252885523998
10.131013612509999 1.085523415873000 3.811336885524000
10.131013612509999 1.085523415873000 10.619252885523998
10.131013612509999 7.870426415873000 3.811336885524000
10.131013612509999 7.870426415873000 10.619252885523998
4.165801528843000 2.276932027964000 3.177050159720000
4.165801528843000 2.276932027964000 9.984966159719999
4.165801528843000 9.061835027963999 3.177050159720000
4.165801528843000 9.061835027963999 9.984966159719999
10.950704528843000 2.276932027964000 3.177050159720000
10.950704528843000 2.276932027964000 9.984966159719999
10.950704528843000 9.061835027963999 3.177050159720000
10.950704528843000 9.061835027963999 9.984966159719999
5.490818450810000 0.879689813562000 4.382364455855999
5.490818450810000 0.879689813562000 11.190280455855998
5.490818450810000 7.664592813562000 4.382364455855999
5.490818450810000 7.664592813562000 11.190280455855998
12.275721450810000 0.879689813562000 4.382364455855999
12.275721450810000 0.879689813562000 11.190280455855998
12.275721450810000 7.664592813562000 4.382364455855999
12.275721450810000 7.664592813562000 11.190280455855998
2.512761686438000 2.098366950810000 -0.723572544144000
2.512761686438000 2.098366950810000 6.084343455856000
2.512761686438000 8.883269950810000 -0.723572544144000
2.512761686438000 8.883269950810000 6.084343455856000
9.297664686438001 2.098366950810000 -0.723572544144000
9.297664686438001 2.098366950810000 6.084343455856000
9.297664686438001 8.883269950810000 -0.723572544144000
9.297664686438001 8.883269950810000 6.084343455856000
4.477974915873000 6.831243887489999 2.109357885524000
4.477974915873000 6.831243887489999 8.917273885523999
4.477974915873000 13.616146887490000 2.109357885524000
4.477974915873000 13.616146887490000 8.917273885523999
11.262877915873000 6.831243887489999 2.109357885524000
11.262877915873000 6.831243887489999 8.917273885523999
11.262877915873000 13.616146887490000 2.109357885524000
11.262877915873000 13.616146887490000 8.917273885523999
5.669383527963999 6.011552971157000 1.475071159720000
5.669383527963999 6.011552971157000 8.282987159719999
5.669383527963999 12.796455971157000 1.475071159720000
5.669383527963999 12.796455971157000 8.282987159719999
12.454286527963999 6.011552971157000 1.475071159720000
12.454286527963999 6.011552971157000 8.282987159719999
12.454286527963999 12.796455971157000 1.475071159720000
12.454286527963999 12.796455971157000 8.282987159719999
4.272141313562000 4.686536049190000 2.680385455856000
4.272141313562000 4.686536049190000 9.488301455856000
4.272141313562000 11.471439049190000 2.680385455856000
4.272141313562000 11.471439049190000 9.488301455856000
11.057044313561999 4.686536049190000 2.680385455856000
11.057044313561999 4.686536049190000 9.488301455856000
11.057044313561999 11.471439049190000 2.680385455856000
11.057044313561999 11.471439049190000 9.488301455856000
6.831243887489999 4.477974915873000 4.698558114476000
6.831243887489999 4.477974915873000 11.506474114475999
6.831243887489999 11.262877915873000 4.698558114476000
6.831243887489999 11.262877915873000 11.506474114475999
13.616146887490000 4.477974915873000 4.698558114476000
13.616146887490000 4.477974915873000 11.506474114475999
13.616146887490000 11.262877915873000 4.698558114476000
13.616146887490000 11.262877915873000 11.506474114475999
6.011552971157000 5.669383527963999 5.332844840280000
6.011552971157000 5.669383527963999 12.140760840279999
6.011552971157000 12.454286527963999 5.332844840280000
6.011552971157000 12.454286527963999 12.140760840279999
12.796455971157000 5.669383527963999 5.332844840280000
12.796455971157000 5.669383527963999 12.140760840279999
12.796455971157000 12.454286527963999 5.332844840280000
12.796455971157000 12.454286527963999 12.140760840279999
4.686536049190000 4.272141313562000 4.127530544144000
4.686536049190000 4.272141313562000 10.935446544144000
4.686536049190000 11.057044313561999 4.127530544144000
4.686536049190000 11.057044313561999 10.935446544144000
11.471439049190000 4.272141313562000 4.127530544144000
11.471439049190000 4.272141313562000 10.935446544144000
11.471439049190000 11.057044313561999 4.127530544144000
11.471439049190000 11.057044313561999 10.935446544144000
2.306928084127000 -0.046340887490000 5.513315885523999
2.306928084127000 -0.046340887490000 12.321231885524000
2.306928084127000 6.738562112509999 5.513315885523999
2.306928084127000 6.738562112509999 12.321231885524000
9.091831084127000 -0.046340887490000 5.513315885523999
9.091831084127000 -0.046340887490000 12.321231885524000
9.091831084127000 6.738562112509999 5.513315885523999
9.091831084127000 6.738562112509999 12.321231885524000
1.115519472036000 0.773350028843000 4.879029159720000
1.115519472036000 0.773350028843000 11.686945159720000
1.115519472036000 7.558253028843000 4.879029159720000
1.115519472036000 7.558253028843000 11.686945159720000
7.900422472036000 0.773350028843000 4.879029159720000
7.900422472036000 0.773350028843000 11.686945159720000
7.900422472036000 7.558253028843000 4.879029159720000
7.900422472036000 7.558253028843000 11.686945159720000
0.774076013464000 2.103523477090000 1.820205269256000
0.774076013464000 2.103523477090000 8.628121269255999
0.774076013464000 8.888426477090000 1.820205269256000
0.774076013464000 8.888426477090000 8.628121269255999
7.558979013464000 2.103523477090000 1.820205269256000
7.558979013464000 2.103523477090000 8.628121269255999
7.558979013464000 8.888426477090000 1.820205269256000
7.558979013464000 8.888426477090000 8.628121269255999
1.288928022910000 4.166527513464000 3.522184269256000
1.288928022910000 4.166527513464000 10.330100269256000
1.288928022910000 10.951430513464000 3.522184269256000
1.288928022910000 10.951430513464000 10.330100269256000
8.073831022909999 4.166527513464000 3.522184269256000
8.073831022909999 4.166527513464000 10.330100269256000
8.073831022909999 10.951430513464000 3.522184269256000
8.073831022909999 10.951430513464000 10.330100269256000
5.495974977090000 2.618375486536000 0.118219461340000
5.495974977090000 2.618375486536000 6.926135461339999
5.495974977090000 9.403278486535999 0.118219461340000
5.495974977090000 9.403278486535999 6.926135461339999
12.280877977090000 2.618375486536000 0.118219461340000
12.280877977090000 2.618375486536000 6.926135461339999
12.280877977090000 9.403278486535999 0.118219461340000
12.280877977090000 9.403278486535999 6.926135461339999
2.618375486536000 5.495974977090000 6.689689730744000
2.618375486536000 5.495974977090000 13.497605730743999
2.618375486536000 12.280877977090000 6.689689730744000
2.618375486536000 12.280877977090000 13.497605730743999
9.403278486535999 5.495974977090000 6.689689730744000
9.403278486535999 5.495974977090000 13.497605730743999
9.403278486535999 12.280877977090000 6.689689730744000
9.403278486535999 12.280877977090000 13.497605730743999
4.166527513464000 1.288928022910000 3.285731730744000
4.166527513464000 1.288928022910000 10.093647730743999
4.166527513464000 8.073831022909999 3.285731730744000
4.166527513464000 8.073831022909999 10.093647730743999
10.951430513464000 1.288928022910000 3.285731730744000
10.951430513464000 1.288928022910000 10.093647730743999
10.951430513464000 8.073831022909999 3.285731730744000
10.951430513464000 8.073831022909999 10.093647730743999
4.681379522909999 6.010826986536000 1.583752730744000
4.681379522909999 6.010826986536000 8.391668730744000
4.681379522909999 12.795729986535999 1.583752730744000
4.681379522909999 12.795729986535999 8.391668730744000
11.466282522909999 6.010826986536000 1.583752730744000
11.466282522909999 6.010826986536000 8.391668730744000
11.466282522909999 12.795729986535999 1.583752730744000
11.466282522909999 12.795729986535999 8.391668730744000
6.010826986536000 4.681379522909999 5.224163269256000
6.010826986536000 4.681379522909999 12.032079269255998
6.010826986536000 11.466282522909999 5.224163269256000
6.010826986536000 11.466282522909999 12.032079269255998
12.795729986535999 4.681379522909999 5.224163269256000
12.795729986535999 4.681379522909999 12.032079269255998
12.795729986535999 11.466282522909999 5.224163269256000
12.795729986535999 11.466282522909999 12.032079269255998
2.103523477090000 0.774076013464000 4.987710730743999
2.103523477090000 0.774076013464000 11.795626730743999
2.103523477090000 7.558979013464000 4.987710730743999
2.103523477090000 7.558979013464000 11.795626730743999
8.888426477090000 0.774076013464000 4.987710730743999
8.888426477090000 0.774076013464000 11.795626730743999
8.888426477090000 7.558979013464000 4.987710730743999
8.888426477090000 7.558979013464000 11.795626730743999
2.742837747168000 2.742837747168000 0.000000000000000
2.742837747168000 2.742837747168000 6.807916000000000
2.742837747168000 9.527740747168000 0.000000000000000
2.742837747168000 9.527740747168000 6.807916000000000
9.527740747168000 2.742837747168000 0.000000000000000
9.527740747168000 2.742837747168000 6.807916000000000
9.527740747168000 9.527740747168000 0.000000000000000
9.527740747168000 9.527740747168000 6.807916000000000
0.649613752832000 6.135289247167999 1.701979000000000
0.649613752832000 6.135289247167999 8.509895000000000
0.649613752832000 12.920192247168000 1.701979000000000
0.649613752832000 12.920192247168000 8.509895000000000
7.434516752832000 6.135289247167999 1.701979000000000
7.434516752832000 6.135289247167999 8.509895000000000
7.434516752832000 12.920192247168000 1.701979000000000
7.434516752832000 12.920192247168000 8.509895000000000
6.135289247167999 0.649613752832000 5.105937000000000
6.135289247167999 0.649613752832000 11.913853000000000
6.135289247167999 7.434516752832000 5.105937000000000
6.135289247167999 7.434516752832000 11.913853000000000
12.920192247168000 0.649613752832000 5.105937000000000
12.920192247168000 0.649613752832000 11.913853000000000
12.920192247168000 7.434516752832000 5.105937000000000
12.920192247168000 7.434516752832000 11.913853000000000
4.042065252832001 4.042065252832001 3.403958000000000
4.042065252832001 4.042065252832001 10.211874000000000
4.042065252832001 10.826968252832000 3.403958000000000
4.042065252832001 10.826968252832000 10.211874000000000
10.826968252832000 4.042065252832001 3.403958000000000
10.826968252832000 4.042065252832001 10.211874000000000
10.826968252832000 10.826968252832000 3.403958000000000
10.826968252832000 10.826968252832000 10.211874000000000
