DMC-ICE13 ice XVII; Cartesian 2x2x2 supercell
1.0
6.234129439396879 10.752349190520000 -0.040829816338000
-6.200320039596959 10.773204536568000 -0.058611368388000
-0.017444650790650 0.055293675010000 11.885618629412001
H O
96 48
Cartesian
2.449176514770401 5.647847862745304 1.136540975676218
2.440454189375076 5.675494700250304 7.079350290382219
-0.650983505028079 11.034450131029304 1.107235291482218
-0.659705830423404 11.062096968534306 7.050044606188218
5.566241234468841 11.024022458005305 1.116126067507218
5.557518909073515 11.051669295510305 7.058935382213218
2.466081214670361 16.410624726289306 1.086820383313218
2.457358889275036 16.438271563794306 7.029629698019218
-2.907054117516549 5.097306504470466 3.112551681508873
-2.915776442911874 5.124953341975466 9.055360996214873
-6.007214137315029 10.483908772754466 3.083245997314873
-6.015936462710354 10.511555610259467 9.026055312020873
0.210010602181890 10.473481099730467 3.092136773339873
0.201288276786565 10.501127937235466 9.034946088045874
-2.890149417616589 15.860083368014468 3.062831089145873
-2.898871743011914 15.887730205519468 9.005640403851874
0.252264838487049 0.753547956079230 5.118155151367717
0.243542513091724 0.781194793584230 11.060964466073717
-2.847895181311432 6.140150224363230 5.088849467173717
-2.856617506706757 6.167797061868231 11.031658781879717
3.369329558185488 6.129722551339230 5.097740243198717
3.360607232790163 6.157369388844231 11.040549557904718
0.269169538387007 11.516324819623232 5.068434559004717
0.260447212991682 11.543971657128232 11.011243873710718
2.039289724932273 4.154625516557047 1.532720868226767
2.030567399536948 4.182272354062047 7.475530182932768
-1.060870294866206 9.541227784841048 1.503415184032767
-1.069592620261532 9.568874622346048 7.446224498738768
5.156354444630711 9.530800111817047 1.512305960057768
5.147632119235388 9.558446949322047 7.455115274763767
2.056194424832233 14.917402380101048 1.483000275863767
2.047472099436908 14.945049217606048 7.425809590569767
-1.407741606084169 5.490504049025038 3.502873169000408
-1.416463931479494 5.518150886530038 9.445682483706408
-4.507901625882648 10.877106317309039 3.473567484806408
-4.516623951277975 10.904753154814038 9.416376799512408
1.709323113614271 10.866678644285038 3.482458260831407
1.700600788218945 10.894325481790037 9.425267575537408
-1.390836906184209 16.253280912569039 3.453152576637407
-1.399559231579534 16.280927750074039 9.395961891343408
-0.837927039673573 1.857654470505858 5.501496756265968
-0.846649365068898 1.885301308010858 11.444306070971969
-3.938087059472052 7.244256738789858 5.472191072071968
-3.946809384867378 7.271903576294858 11.415000386777969
2.279137680024867 7.233829065765858 5.481081848096968
2.270415354629542 7.261475903270858 11.423891162802969
-0.821022339773613 12.620431334049860 5.451776163902968
-0.829744665168938 12.648078171554859 11.394585478608969
0.717363807590142 5.824670091825422 2.538224208004126
0.708641482194817 5.852316929330422 8.481033522710128
-2.382796212208337 11.211272360109422 2.508918523810126
-2.391518537603663 11.238919197614422 8.451727838516128
3.834428527288582 11.200844687085421 2.517809299835126
3.825706201893257 11.228491524590423 8.460618614541126
0.734268507490102 16.587446955369423 2.488503615641126
0.725546182094777 16.615093792874422 8.431312930347126
0.923951848372772 8.896542456136281 4.505184581867880
0.915229522977447 8.924189293641280 10.447993896573880
-2.176208171425708 14.283144724420282 4.475878897673880
-2.184930496821034 14.310791561925281 10.418688212379880
4.041016568071211 14.272717051396281 4.484769673698880
4.032294242675885 14.300363888901281 10.427578988404880
0.940856548272732 19.659319319680282 4.455463989504880
0.932134222877407 19.686966157185282 10.398273304210880
-1.827077570783749 7.529512060820658 0.546014179415357
-1.835799896179073 7.557158898325659 6.488823494121357
-4.927237590582228 12.916114329104659 0.516708495221357
-4.935959915977554 12.943761166609658 6.459517809927357
1.289987148914691 12.905686656080658 0.525599271246357
1.281264823519366 12.933333493585659 6.468408585952357
-1.810172870883789 18.292288924364659 0.496293587052357
-1.818895196279114 18.319935761869658 6.439102901758357
-0.663317768206111 7.340277832327126 1.630596766133060
-0.672040093601436 7.367924669832126 7.573406080839060
-3.763477788004591 12.726880100611126 1.601291081939060
-3.772200113399916 12.754526938116125 7.544100396645060
2.453746951492328 12.716452427587125 1.610181857964060
2.445024626097003 12.744099265092126 7.552991172670060
-0.646413068306151 18.103054695871126 1.580876173770060
-0.655135393701476 18.130701533376126 7.523685488476060
0.300595002858261 6.935217472820593 3.614728761766080
0.291872677462936 6.962864310325593 9.557538076472081
-2.799565016940218 12.321819741104594 3.585423077572080
-2.808287342335544 12.349466578609594 9.528232392278081
3.417659722556701 12.311392068080593 3.594313853597080
3.408937397161376 12.339038905585593 9.537123168303081
0.317499702758221 17.697994336364594 3.565008169403080
0.308777377362896 17.725641173869594 9.507817484109081
0.172992449219590 7.988958098801410 5.590652401835019
0.164270123824265 8.016604936306409 11.533461716541019
-2.927167570578889 13.375560367085409 5.561346717641019
-2.935889895974214 13.403207204590410 11.504156032347019
3.290057168918030 13.365132694061410 5.570237493666019
3.281334843522705 13.392779531566411 11.513046808372019
0.189897149119550 18.751734962345409 5.540931809472019
0.181174823724225 18.779381799850412 11.483741124178019
-0.077782448848182 1.323933249602572 5.872738707363856
-0.086504774243507 1.351580087107572 11.815548022069857
-3.177942468646663 6.710535517886573 5.843433023169856
-3.186664794041988 6.738182355391573 11.786242337875857
3.039282270850257 6.700107844862573 5.852323799194856
3.030559945454932 6.727754682367573 11.795133113900857
-0.060877748948222 12.086710113146573 5.823018115000856
-0.069600074343547 12.114356950651572 11.765827429706857
2.121777084875005 5.082768049158548 1.896254253800760
2.113054759479680 5.110414886663548 7.839063568506761
-0.978382934923474 10.469370317442548 1.866948569606760
-0.987105260318799 10.497017154947549 7.809757884312761
5.238841804573446 10.458942644418549 1.875839345631760
5.230119479178120 10.486589481923549 7.818648660337761
2.138681784774965 15.845544912702550 1.846533661437760
2.129959459379640 15.873191750207550 7.789342976143761
-2.252751762002253 5.102269194974025 3.871260113836954
-2.261474087397578 5.129916032479025 9.814069428542954
-5.352911781800732 10.488871463258025 3.841954429642954
-5.361634107196058 10.516518300763025 9.784763744348954
0.864312957696187 10.478443790234024 3.850845205667954
0.855590632300861 10.506090627739026 9.793654520373954
-2.235847062102293 15.865046058518026 3.821539521473954
-2.244569387497618 15.892692896023025 9.764348836179954
-0.059789490647640 6.347952971993556 2.888144789503635
-0.068511816042965 6.375599809498556 8.830954104209635
-3.159949510446119 11.734555240277556 2.858839105309635
-3.168671835841444 11.762202077782558 8.801648420015635
3.057275229050800 11.724127567253557 2.867729881334635
3.048552903655474 11.751774404758557 8.810539196040635
-0.042884790747680 17.110729835537558 2.838424197140635
-0.051607116143005 17.138376673042558 8.781233511846635
0.860217633549489 7.964741187451218 4.862726180546602
0.851495308154164 7.992388024956218 10.805535495252602
-2.239942386248991 13.351343455735218 4.833420496352602
-2.248664711644316 13.378990293240218 10.776229811058602
3.977282353247928 13.340915782711217 4.842311272377602
3.968560027852603 13.368562620216219 10.785120587083602
0.877122333449449 18.727518050995219 4.813005588183602
0.868400008054124 18.755164888500218 10.755814902889602
-0.986935712322690 7.941993938213103 0.898546988891357
-0.995658037718015 7.969640775718103 6.841356303597357
-4.087095732121169 13.328596206497103 0.869241304697357
-4.095818057516494 13.356243044002102 6.812050619403357
2.130129007375749 13.318168533473102 0.878132080722357
2.121406681980424 13.345815370978103 6.820941395428357
-0.970031012422730 18.704770801757103 0.848826396528357
-0.978753337818055 18.732417639262103 6.791635711234357
