DMC-ICE13 ice III; Cartesian 1x1x1 supercell
1.0
6.656960910599000 -0.005415985843000 -0.002062961627000
-0.005565613813000 6.559087831344000 -0.042170168336000
0.000828053123000 -0.044407337396000 7.452026881070000
H O
24 12
Cartesian
1.607156918922136 2.270449264150240 1.338872930386932
5.028886222129423 4.281665330357190 5.033918413229319
0.952210944035193 4.872580755154523 3.135141539668227
1.683107434129327 5.528796276596490 0.630077055640021
4.921649653848668 0.960847236165016 4.354656050760100
4.269862941817241 4.932981015096872 2.526262806698480
2.437323558545896 5.928089919435877 6.762319200169677
4.191355586169341 0.492021262239980 3.029976949357127
2.807035200883808 0.839369047463731 4.910703753189856
3.814878772139404 5.604137435096191 1.164399186715417
6.591127491642291 4.266247675811862 4.983727188703718
0.948972995053513 3.313443772164618 3.155316159327225
5.720653473613848 3.235884284264129 6.849739676630585
1.277227997361365 0.745990967287486 5.465016557433615
5.913955155908070 1.162483679865445 6.299692013700315
2.585688987267184 2.018316853128078 6.847942541906363
2.665656581985920 3.536520263407338 7.402243429115953
3.970688547581097 2.860986200816204 3.662305581589252
0.645519632720922 0.390885887903434 1.999756792624849
2.867155763857479 3.971633184996653 3.890377948613477
0.043898113102928 2.317868442205322 1.298589220847530
4.585615055558876 2.514997060642050 0.175048520247385
6.198553166289520 5.825128218132166 1.734598006083957
5.994785094367153 6.212281218873399 5.673613568775101
0.803799032453221 2.108692441332798 1.913006432176909
5.828457890205881 4.463713617827151 5.601367994117539
1.131350730387112 4.101122493404018 3.744846655753434
5.566926993885224 2.493036995627139 -0.006462516846078
2.474657498228427 5.319258745297374 0.059396980470644
4.120827782980055 1.140476323048771 3.783975212800627
2.238271787387903 0.756292077221798 5.724582689713744
4.469228689284024 5.694069112092953 1.910408117151238
2.844504098161719 2.628005971032589 0.177966381687766
3.853036730918245 3.841891355412641 3.800863425474702
0.522998973818166 5.962553607709647 1.852947703199117
6.172625251238320 0.613795165350727 5.507181285243314
