DMC-ICE13 ice XVII; Cartesian 2x2x2 supercell
1.0
6.232259387570243 10.752349190520000 -0.040829816338000
-6.198460129576082 10.773204536568000 -0.058611368388000
-0.017439417918700 0.055293675010000 11.885618629412001
H O
96 48
Cartesian
2.448441835283918 5.647847862745304 1.136540975676218
2.439722126324568 5.675494700250304 7.079350290382219
-0.650788229504123 11.034450131029304 1.107235291482218
-0.659507938463473 11.062096968534306 7.050044606188218
5.564571529069041 11.024022458005305 1.116126067507218
5.555851820109690 11.051669295510305 7.058935382213218
2.465341464280999 16.410624726289306 1.086820383313218
2.456621755321649 16.438271563794306 7.029629698019218
-2.906182088484198 5.097306504470466 3.112551681508873
-2.914901797443548 5.124953341975466 9.055360996214873
-6.005412153272239 10.483908772754466 3.083245997314873
-6.014131862231589 10.511555610259467 9.026055312020873
0.209947605300924 10.473481099730467 3.092136773339873
0.201227896341574 10.501127937235466 9.034946088045874
-2.889282459487117 15.860083368014468 3.062831089145873
-2.898002168446467 15.887730205519468 9.005640403851874
0.252189166602691 0.753547956079230 5.118155151367717
0.243469457643341 0.781194793584230 11.060964466073717
-2.847040898185351 6.140150224363230 5.088849467173717
-2.855760607144701 6.167797061868231 11.031658781879717
3.368318860387812 6.129722551339230 5.097740243198717
3.359599151428462 6.157369388844231 11.040549557904718
0.269088795599770 11.516324819623232 5.068434559004717
0.260369086640420 11.543971657128232 11.011243873710718
2.038677999187368 4.154625516557047 1.532720868226767
2.029958290228018 4.182272354062047 7.475530182932768
-1.060552065600673 9.541227784841048 1.503415184032767
-1.069271774560024 9.568874622346048 7.446224498738768
5.154807692972488 9.530800111817047 1.512305960057768
5.146087984013139 9.558446949322047 7.455115274763767
2.055577628184448 14.917402380101048 1.483000275863767
2.046857919225098 14.945049217606048 7.425809590569767
-1.407319325830369 5.490504049025038 3.502873169000408
-1.416039034789719 5.518150886530038 9.445682483706408
-4.506549390618410 10.877106317309039 3.473567484806408
-4.515269099577761 10.904753154814038 9.416376799512408
1.708810367954752 10.866678644285038 3.482458260831407
1.700090658995402 10.894325481790037 9.425267575537408
-1.390419696833289 16.253280912569039 3.453152576637407
-1.399139405792639 16.280927750074039 9.395961891343408
-0.837675686696968 1.857654470505858 5.501496756265968
-0.846395395656318 1.885301308010858 11.444306070971969
-3.936905751485009 7.244256738789858 5.472191072071968
-3.945625460444361 7.271903576294858 11.415000386777969
2.278454007088153 7.233829065765858 5.481081848096968
2.269734298128803 7.261475903270858 11.423891162802969
-0.820776057699888 12.620431334049860 5.451776163902968
-0.829495766659238 12.648078171554859 11.394585478608969
0.717148619966628 5.824670091825422 2.538224208004126
0.708428911007278 5.852316929330422 8.481033522710128
-2.382081444821413 11.211272360109422 2.508918523810126
-2.390801153780765 11.238919197614422 8.451727838516128
3.833278313751749 11.200844687085421 2.517809299835126
3.824558604792399 11.228491524590423 8.460618614541126
0.734048248963708 16.587446955369423 2.488503615641126
0.725328540004358 16.615093792874422 8.431312930347126
0.923674690534044 8.896542456136281 4.505184581867880
0.914954981574694 8.924189293641280 10.447993896573880
-2.175555374253997 14.283144724420282 4.475878897673880
-2.184275083213348 14.310791561925281 10.418688212379880
4.039804384319165 14.272717051396281 4.484769673698880
4.031084675359814 14.300363888901281 10.427578988404880
0.940574319531124 19.659319319680282 4.455463989504880
0.931854610571774 19.686966157185282 10.398273304210880
-1.826529502319360 7.529512060820658 0.546014179415357
-1.835249211278710 7.557158898325659 6.488823494121357
-4.925759567107401 12.916114329104659 0.516708495221357
-4.934479276066752 12.943761166609658 6.459517809927357
1.289600191465761 12.905686656080658 0.525599271246357
1.280880482506411 12.933333493585659 6.468408585952357
-1.809629873322280 18.292288924364659 0.496293587052357
-1.818349582281630 18.319935761869658 6.439102901758357
-0.663118792773193 7.340277832327126 1.630596766133060
-0.671838501732543 7.367924669832126 7.573406080839060
-3.762348857561234 12.726880100611126 1.601291081939060
-3.771068566520584 12.754526938116125 7.544100396645060
2.453010901011929 12.716452427587125 1.610181857964060
2.444291192052579 12.744099265092126 7.552991172670060
-0.646219163776112 18.103054695871126 1.580876173770060
-0.654938872735462 18.130701533376126 7.523685488476060
0.300504833374352 6.935217472820593 3.614728761766080
0.291785124415002 6.962864310325593 9.557538076472081
-2.798725231413689 12.321819741104594 3.585423077572080
-2.807444940373040 12.349466578609594 9.528232392278081
3.416634527159474 12.311392068080593 3.594313853597080
3.407914818200124 12.339038905585593 9.537123168303081
0.317404462371432 17.697994336364594 3.565008169403080
0.308684753412082 17.725641173869594 9.507817484109081
0.172940556674079 7.988958098801410 5.590652401835019
0.164220847714729 8.016604936306409 11.533461716541019
-2.926289508113962 13.375560367085409 5.561346717641019
-2.935009217073312 13.403207204590410 11.504156032347019
3.289070250459200 13.365132694061410 5.570237493666019
3.280350541499851 13.392779531566411 11.513046808372019
0.189840185671159 18.751734962345409 5.540931809472019
0.181120476711809 18.779381799850412 11.483741124178019
-0.077759116446768 1.323933249602572 5.872738707363856
-0.086478825406118 1.351580087107572 11.815548022069857
-3.176989181234810 6.710535517886573 5.843433023169856
-3.185708890194160 6.738182355391573 11.786242337875857
3.038370577338353 6.700107844862573 5.852323799194856
3.029650868379004 6.727754682367573 11.795133113900857
-0.060859487449688 12.086710113146573 5.823018115000856
-0.069579196409038 12.114356950651572 11.765827429706857
2.121140615396491 5.082768049158548 1.896254253800760
2.112420906437141 5.110414886663548 7.839063568506761
-0.978089449391550 10.469370317442548 1.866948569606760
-0.986809158350900 10.497017154947549 7.809757884312761
5.237270309181613 10.458942644418549 1.875839345631760
5.228550600222261 10.486589481923549 7.818648660337761
2.138040244393571 15.845544912702550 1.846533661437760
2.129320535434221 15.873191750207550 7.789342976143761
-2.252076004049448 5.102269194974025 3.871260113836954
-2.260795713008798 5.129916032479025 9.814069428542954
-5.351306068837489 10.488871463258025 3.841954429642954
-5.360025777796840 10.516518300763025 9.784763744348954
0.864053689735674 10.478443790234024 3.850845205667954
0.855333980776323 10.506090627739026 9.793654520373954
-2.235176375052368 15.865046058518026 3.821539521473954
-2.243896084011717 15.892692896023025 9.764348836179954
-0.059771555593951 6.347952971993556 2.888144789503635
-0.068491264553301 6.375599809498556 8.830954104209635
-3.159001620381992 11.734555240277556 2.858839105309635
-3.167721329341342 11.762202077782558 8.801648420015635
3.056358138191170 11.724127567253557 2.867729881334635
3.047638429231820 11.751774404758557 8.810539196040635
-0.042871926596871 17.110729835537558 2.838424197140635
-0.051591635556221 17.138376673042558 8.781233511846635
0.859959594063373 7.964741187451218 4.862726180546602
0.851239885104022 7.992388024956218 10.805535495252602
-2.239270470724668 13.351343455735218 4.833420496352602
-2.247990179684018 13.378990293240218 10.776229811058602
3.976089287848494 13.340915782711217 4.842311272377602
3.967369578889143 13.368562620216219 10.785120587083602
0.876859223060453 18.727518050995219 4.813005588183602
0.868139514101103 18.755164888500218 10.755814902889602
-0.986639661214104 7.941993938213103 0.898546988891357
-0.995359370173454 7.969640775718103 6.841356303597357
-4.085869726002144 13.328596206497103 0.869241304697357
-4.094589434961495 13.356243044002102 6.812050619403357
2.129490032571017 13.318168533473102 0.878132080722357
2.120770323611668 13.345815370978103 6.820941395428357
-0.969740032217024 18.704770801757103 0.848826396528357
-0.978459741176374 18.732417639262103 6.791635711234357
