DMC-ICE13 ice VI; Cartesian 3x3x3 supercell
1.0
18.681097192365002 -0.049178362191000 0.012136255551000
-0.152877785487000 18.683455563972000 0.035861320389000
0.102485105391000 -0.059270534022000 17.480697928215001
H O
540 270
Cartesian
2.709738835266305 1.508480876386175 0.029839042788471
2.743900537063305 1.488724031712175 5.856738352193472
2.778062238860305 1.468967187038175 11.683637661598471
2.658779573437305 7.736299397710175 0.041792816251471
2.692941275234305 7.716542553036175 5.868692125656472
2.727102977031305 7.696785708362174 11.695591435061472
2.607820311608305 13.964117919034175 0.053746589714471
2.641982013405305 13.944361074360176 5.880645899119472
2.676143715202305 13.924604229686175 11.707545208524472
8.936771232721306 1.492088088989175 0.033884461305471
8.970932934518306 1.472331244315175 5.860783770710472
9.005094636315306 1.452574399641175 11.687683080115471
8.885811970892306 7.719906610313175 0.045838234768471
8.919973672689306 7.700149765639175 5.872737544173471
8.954135374486306 7.680392920965175 11.699636853578472
8.834852709063306 13.947725131637174 0.057792008231471
8.869014410860306 13.927968286963175 5.884691317636472
8.903176112657306 13.908211442289176 11.711590627041470
15.163803630176304 1.475695301592175 0.037929879822471
15.197965331973304 1.455938456918175 5.864829189227471
15.232127033770304 1.436181612244175 11.691728498632472
15.112844368347304 7.703513822916175 0.049883653285471
15.147006070144304 7.683756978242175 5.876782962690472
15.181167771941304 7.664000133568175 11.703682272095470
15.061885106518304 13.931332344240175 0.061837426748471
15.096046808315304 13.911575499566174 5.888736736153472
15.130208510112304 13.891818654892175 11.715636045558471
3.246712792519051 4.605428703867755 5.737281443867790
3.280874494316051 4.585671859193755 11.564180753272790
3.315036196113051 4.565915014519755 17.391080062677791
3.195753530690051 10.833247225191755 5.749235217330790
3.229915232487051 10.813490380517756 11.576134526735791
3.264076934284051 10.793733535843755 17.403033836140793
3.144794268861051 17.061065746515755 5.761188990793790
3.178955970658051 17.041308901841756 11.588088300198791
3.213117672455051 17.021552057167753 17.414987609603791
9.473745189974050 4.589035916470755 5.741326862384790
9.507906891771050 4.569279071796755 11.568226171789791
9.542068593568050 4.549522227122755 17.395125481194789
9.422785928145050 10.816854437794756 5.753280635847790
9.456947629942050 10.797097593120755 11.580179945252791
9.491109331739050 10.777340748446754 17.407079254657791
9.371826666316050 17.044672959118756 5.765234409310790
9.405988368113050 17.024916114444757 11.592133718715790
9.440150069910050 17.005159269770758 17.419033028120790
15.700777587429052 4.572643129073755 5.745372280901790
15.734939289226052 4.552886284399755 11.572271590306791
15.769100991023052 4.533129439725755 17.399170899711791
15.649818325600052 10.800461650397756 5.757326054364790
15.683980027397052 10.780704805723754 11.584225363769789
15.718141729194052 10.760947961049755 17.411124673174790
15.598859063771052 17.028280171721754 5.769279827827790
15.633020765568052 17.008523327047754 11.596179137232792
15.667182467365052 16.988766482373755 17.423078446637788
0.158730535734869 1.484656052799478 0.036790442036825
0.192892237531869 1.464899208125478 5.863689751441826
0.227053939328869 1.445142363451478 11.690589060846825
0.107771273905869 7.712474574123478 0.048744215499825
0.141932975702869 7.692717729449478 5.875643524904826
0.176094677499869 7.672960884775478 11.702542834309826
0.056812012076869 13.940293095447478 0.060697988962825
0.090973713873869 13.920536250773479 5.887597298367826
0.125135415670869 13.900779406099478 11.714496607772826
6.385762933189869 1.468263265402478 0.040835860553825
6.419924634986869 1.448506420728478 5.867735169958826
6.454086336783869 1.428749576054478 11.694634479363826
6.334803671360869 7.696081786726478 0.052789634016825
6.368965373157869 7.676324942052478 5.879688943421826
6.403127074954869 7.656568097378478 11.706588252826826
6.283844409531869 13.923900308050477 0.064743407479825
6.318006111328869 13.904143463376478 5.891642716884826
6.352167813125869 13.884386618702479 11.718542026289825
12.612795330644868 1.451870478005478 0.044881279070825
12.646957032441868 1.432113633331478 5.871780588475826
12.681118734238868 1.412356788657478 11.698679897880826
12.561836068815868 7.679688999329478 0.056835052533825
12.595997770612868 7.659932154655478 5.883734361938826
12.630159472409868 7.640175309981478 11.710633671343825
12.510876806986868 13.907507520653478 0.068788825996825
12.545038508783868 13.887750675979477 5.895688135401826
12.579200210580868 13.867993831305478 11.722587444806825
5.797809566714232 4.628953438010894 5.730216198466852
5.831971268511232 4.609196593336894 11.557115507871853
5.866132970308232 4.589439748662894 17.384014817276853
5.746850304885232 10.856771959334894 5.742169971929853
5.781012006682232 10.837015114660893 11.569069281334853
5.815173708479232 10.817258269986894 17.395968590739855
5.695891043056232 17.084590480658896 5.754123745392852
5.730052744853232 17.064833635984897 11.581023054797853
5.764214446650232 17.045076791310894 17.407922364202854
12.024841964169232 4.612560650613895 5.734261616983853
12.059003665966232 4.592803805939894 11.561160926388853
12.093165367763232 4.573046961265894 17.388060235793851
11.973882702340232 10.840379171937894 5.746215390446852
12.008044404137232 10.820622327263894 11.573114699851853
12.042206105934232 10.800865482589895 17.400014009256854
11.922923440511232 17.068197693261894 5.758169163909852
11.957085142308232 17.048440848587894 11.585068473314852
11.991246844105232 17.028684003913895 17.411967782719852
18.251874361624232 4.596167863216895 5.738307035500852
18.286036063421232 4.576411018542895 11.565206344905853
18.320197765218232 4.556654173868894 17.392105654310853
18.200915099795232 10.823986384540895 5.750260808963852
18.235076801592232 10.804229539866895 11.577160118368852
18.269238503389232 10.784472695192894 17.404059427773852
18.149955837966232 17.051804905864895 5.762214582426853
18.184117539763232 17.032048061190892 11.589113891831854
18.218279241560232 17.012291216516893 17.416013201236851
1.402838521519490 2.235886110487778 2.007602213737871
1.437000223316490 2.216129265813778 7.834501523142872
1.471161925113490 2.196372421139778 13.661400832547873
1.351879259690490 8.463704631811778 2.019555987200871
1.386040961487490 8.443947787137779 7.846455296605872
1.420202663284490 8.424190942463778 13.673354606010871
1.300919997861490 14.691523153135778 2.031509760663871
1.335081699658490 14.671766308461779 7.858409070068872
1.369243401455490 14.652009463787778 13.685308379473874
7.629870918974490 2.219493323090779 2.011647632254871
7.664032620771490 2.199736478416778 7.838546941659872
7.698194322568490 2.179979633742778 13.665446251064871
7.578911657145490 8.447311844414779 2.023601405717872
7.613073358942490 8.427554999740778 7.850500715122871
7.647235060739490 8.407798155066779 13.677400024527874
7.527952395316490 14.675130365738777 2.035555179180871
7.562114097113490 14.655373521064778 7.862454488585872
7.596275798910490 14.635616676390779 13.689353797990872
13.856903316429490 2.203100535693778 2.015693050771871
13.891065018226490 2.183343691019778 7.842592360176871
13.925226720023490 2.163586846345778 13.669491669581873
13.805944054600490 8.430919057017778 2.027646824234871
13.840105756397490 8.411162212343779 7.854546133639872
13.874267458194490 8.391405367669778 13.681445443044872
13.754984792771490 14.658737578341778 2.039600597697871
13.789146494568490 14.638980733667777 7.866499907102872
13.823308196365490 14.619223888993778 13.693399216507871
4.553372517605603 3.877932751781067 3.759492827588916
4.587534219402603 3.858175907107067 9.586392136993917
4.621695921199604 3.838419062433067 15.413291446398917
4.502413255776603 10.105751273105067 3.771446601051916
4.536574957573603 10.085994428431068 9.598345910456917
4.570736659370604 10.066237583757067 15.425245219861917
4.451453993947603 16.333569794429067 3.783400374514916
4.485615695744603 16.313812949755068 9.610299683919916
4.519777397541604 16.294056105081069 15.437198993324918
10.780404915060604 3.861539964384067 3.763538246105916
10.814566616857604 3.841783119710067 9.590437555510917
10.848728318654604 3.822026275036067 15.417336864915917
10.729445653231604 10.089358485708068 3.775492019568916
10.763607355028604 10.069601641034067 9.602391328973916
10.797769056825604 10.049844796360066 15.429290638378918
10.678486391402604 16.317177007032065 3.787445793031916
10.712648093199604 16.297420162358065 9.614345102436916
10.746809794996604 16.277663317684066 15.441244411841916
17.007437312515602 3.845147176987067 3.767583664622916
17.041599014312602 3.825390332313067 9.594482974027915
17.075760716109603 3.805633487639067 15.421382283432918
16.956478050686602 10.072965698311068 3.779537438085916
16.990639752483602 10.053208853637067 9.606436747490916
17.024801454280603 10.033452008963067 15.433336056895916
16.905518788857602 16.300784219635069 3.791491211548916
16.939680490654602 16.281027374961067 9.618390520953916
16.973842192451603 16.261270530287067 15.445289830358917
1.436350820898473 0.699055075446015 1.976812495214456
1.470512522695473 0.679298230772015 7.803711804619456
1.504674224492473 0.659541386098015 13.630611114024456
1.385391559069473 6.926873596770015 1.988766268677456
1.419553260866473 6.907116752096015 7.815665578082457
1.453714962663474 6.887359907422015 13.642564887487456
1.334432297240473 13.154692118094015 2.000720042140456
1.368593999037473 13.134935273420016 7.827619351545456
1.402755700834474 13.115178428746015 13.654518660950457
7.663383218353474 0.682662288049015 1.980857913731456
7.697544920150474 0.662905443375015 7.807757223136456
7.731706621947474 0.643148598701015 13.634656532541456
7.612423956524474 6.910480809373015 1.992811687194456
7.646585658321474 6.890723964699015 7.819710996599456
7.680747360118474 6.870967120025015 13.646610306004456
7.561464694695474 13.138299330697015 2.004765460657456
7.595626396492474 13.118542486023015 7.831664770062456
7.629788098289474 13.098785641349016 13.658564079467455
13.890415615808474 0.666269500652015 1.984903332248456
13.924577317605474 0.646512655978015 7.811802641653456
13.958739019402474 0.626755811304015 13.638701951058456
13.839456353979473 6.894088021976016 1.996857105711456
13.873618055776474 6.874331177302015 7.823756415116456
13.907779757573474 6.854574332628015 13.650655724521455
13.788497092150473 13.121906543300016 2.008810879174456
13.822658793947474 13.102149698626015 7.835710188579457
13.856820495744474 13.082392853952015 13.662609497984455
4.520030433781455 5.414792844236075 3.790238270054575
4.554192135578455 5.395035999562075 9.617137579459575
4.588353837375455 5.375279154888075 15.444036888864575
4.469071171952455 11.642611365560075 3.802192043517575
4.503232873749455 11.622854520886076 9.629091352922575
4.537394575546455 11.603097676212075 15.455990662327576
4.418111910123454 17.870429886884075 3.814145816980575
4.452273611920455 17.850673042210076 9.641045126385574
4.486435313717455 17.830916197536077 15.467944435790576
10.747062831236455 5.398400056839075 3.794283688571574
10.781224533033456 5.378643212165075 9.621182997976575
10.815386234830456 5.358886367491075 15.448082307381576
10.696103569407455 11.626218578163076 3.806237462034575
10.730265271204456 11.606461733489075 9.633136771439574
10.764426973001456 11.586704888815074 15.460036080844576
10.645144307578455 17.854037099487073 3.818191235497575
10.679306009375455 17.834280254813073 9.645090544902576
10.713467711172456 17.814523410139074 15.471989854307575
16.974095228691453 5.382007269442076 3.798329107088575
17.008256930488454 5.362250424768075 9.625228416493574
17.042418632285454 5.342493580094075 15.452127725898576
16.923135966862453 11.609825790766076 3.810282880551575
16.957297668659454 11.590068946092074 9.637182189956576
16.991459370456454 11.570312101418075 15.464081499361575
16.872176705033453 17.837644312090077 3.822236654014575
16.906338406830454 17.817887467416075 9.649135963419575
16.940500108627454 17.798130622742075 15.476035272824575
1.446651698405844 4.156029657033588 3.616444909370394
1.480813400202844 4.136272812359588 9.443344218775394
1.514975101999844 4.116515967685587 15.270243528180394
1.395692436576844 10.383848178357589 3.628398682833394
1.429854138373844 10.364091333683588 9.455297992238394
1.464015840170844 10.344334489009587 15.282197301643395
1.344733174747844 16.611666699681589 3.640352456296394
1.378894876544844 16.591909855007589 9.467251765701395
1.413056578341844 16.572153010333587 15.294151075106395
7.673684095860843 4.139636869636588 3.620490327887393
7.707845797657844 4.119880024962588 9.447389637292394
7.742007499454844 4.100123180288588 15.274288946697395
7.622724834031843 10.367455390960588 3.632444101350394
7.656886535828844 10.347698546286587 9.459343410755395
7.691048237625844 10.327941701612588 15.286242720160395
7.571765572202843 16.595273912284586 3.644397874813394
7.605927273999844 16.575517067610587 9.471297184218393
7.640088975796844 16.555760222936588 15.298196493623394
13.900716493315844 4.123244082239588 3.624535746404394
13.934878195112844 4.103487237565588 9.451435055809394
13.969039896909845 4.083730392891588 15.278334365214395
13.849757231486844 10.351062603563587 3.636489519867394
13.883918933283844 10.331305758889588 9.463388829272393
13.918080635080845 10.311548914215589 15.290288138677393
13.798797969657844 16.578881124887587 3.648443293330394
13.832959671454844 16.559124280213588 9.475342602735395
13.867121373251845 16.539367435539589 15.302241912140394
4.509854792907134 1.957735419740408 2.150581672247966
4.544016494704135 1.937978575066408 7.977480981652967
4.578178196501135 1.918221730392409 13.804380291057967
4.458895531078134 8.185553941064409 2.162535445710966
4.493057232875135 8.165797096390408 7.989434755115967
4.527218934672135 8.146040251716409 13.816334064520968
4.407936269249134 14.413372462388409 2.174489219173966
4.442097971046135 14.393615617714410 8.001388528578966
4.476259672843135 14.373858773040409 13.828287837983968
10.736887190362134 1.941342632343408 2.154627090764966
10.771048892159135 1.921585787669408 7.981526400169967
10.805210593956135 1.901828942995409 13.808425709574967
10.685927928533134 8.169161153667408 2.166580864227966
10.720089630330135 8.149404308993409 7.993480173632966
10.754251332127135 8.129647464319408 13.820379483037968
10.634968666704134 14.396979674991409 2.178534637690966
10.669130368501134 14.377222830317409 8.005433947095966
10.703292070298135 14.357465985643410 13.832333256500966
16.963919587817134 1.924949844946408 2.158672509281966
16.998081289614134 1.905193000272408 7.985571818686966
17.032242991411135 1.885436155598408 13.812471128091968
16.912960325988134 8.152768366270410 2.170626282744966
16.947122027785134 8.133011521596408 7.997525592149966
16.981283729582135 8.113254676922409 13.824424901554966
16.862001064159134 14.380586887594410 2.182580056207966
16.896162765956134 14.360830042920409 8.009479365612966
16.930324467753135 14.341073198246409 13.836378675017967
4.129690594437553 1.506498584463924 5.048162702138849
4.163852296234554 1.486741739789924 10.875062011543850
4.198013998031554 1.466984895115924 16.701961320948850
4.078731332608553 7.734317105787924 5.060116475601849
4.112893034405554 7.714560261113924 10.887015785006849
4.147054736202554 7.694803416439924 16.713915094411849
4.027772070779553 13.962135627111923 5.072070249064849
4.061933772576554 13.942378782437924 10.898969558469849
4.096095474373554 13.922621937763925 16.725868867874851
10.356722991892553 1.490105797066924 5.052208120655849
10.390884693689554 1.470348952392924 10.879107430060849
10.425046395486554 1.450592107718924 16.706006739465849
10.305763730063553 7.717924318390924 5.064161894118849
10.339925431860554 7.698167473716924 10.891061203523849
10.374087133657554 7.678410629042924 16.717960512928851
10.254804468234553 13.945742839714924 5.076115667581849
10.288966170031554 13.925985995040925 10.903014976986849
10.323127871828554 13.906229150366926 16.729914286391850
16.583755389347552 1.473713009669924 5.056253539172848
16.617917091144555 1.453956164995924 10.883152848577849
16.652078792941552 1.434199320321924 16.710052157982851
16.532796127518552 7.701531530993925 5.068207312635849
16.566957829315555 7.681774686319924 10.895106622040849
16.601119531112552 7.662017841645924 16.722005931445850
16.481836865689552 13.929350052317925 5.080161086098849
16.515998567486555 13.909593207643923 10.907060395503850
16.550160269283552 13.889836362969923 16.733959704908848
1.826846258859333 4.607239156511478 0.719106838146407
1.861007960656333 4.587482311837478 6.546006147551407
1.895169662453333 4.567725467163478 12.372905456956406
1.775886997030333 10.835057677835479 0.731060611609406
1.810048698827333 10.815300833161478 6.557959921014407
1.844210400624333 10.795543988487477 12.384859230419409
1.724927735201333 17.062876199159479 0.743014385072406
1.759089436998333 17.043119354485480 6.569913694477407
1.793251138795333 17.023362509811477 12.396813003882407
8.053878656314332 4.590846369114479 0.723152256663407
8.088040358111332 4.571089524440478 6.550051566068407
8.122202059908332 4.551332679766478 12.376950875473408
8.002919394485332 10.818664890438479 0.735106030126407
8.037081096282332 10.798908045764477 6.562005339531407
8.071242798079332 10.779151201090478 12.388904648936407
7.951960132656333 17.046483411762477 0.747059803589406
7.986121834453333 17.026726567088478 6.573959112994407
8.020283536250332 17.006969722414478 12.400858422399406
14.280911053769332 4.574453581717479 0.727197675180407
14.315072755566332 4.554696737043479 6.554096984585406
14.349234457363332 4.534939892369478 12.380996293990407
14.229951791940332 10.802272103041478 0.739151448643407
14.264113493737332 10.782515258367479 6.566050758048407
14.298275195534332 10.762758413693479 12.392950067453405
14.178992530111332 17.030090624365478 0.751105222106407
14.213154231908332 17.010333779691479 6.578004531511407
14.247315933705332 16.990576935017479 12.404903840916408
2.178617208608999 2.797799260219972 4.042816118344390
2.212778910406000 2.778042415545972 9.869715427749391
2.246940612202999 2.758285570871972 15.696614737154391
2.127657946779999 9.025617781543971 4.054769891807391
2.161819648577000 9.005860936869972 9.881669201212391
2.195981350373999 8.986104092195973 15.708568510617392
2.076698684950999 15.253436302867971 4.066723665270390
2.110860386748000 15.233679458193972 9.893622974675392
2.145022088544999 15.213922613519973 15.720522284080392
8.405649606063999 2.781406472822972 4.046861536861391
8.439811307861000 2.761649628148972 9.873760846266391
8.473973009658000 2.741892783474972 15.700660155671391
8.354690344234999 9.009224994146972 4.058815310324390
8.388852046032000 8.989468149472973 9.885714619729391
8.423013747829000 8.969711304798972 15.712613929134392
8.303731082405999 15.237043515470972 4.070769083787391
8.337892784203000 15.217286670796973 9.897668393192390
8.372054486000000 15.197529826122974 15.724567702597390
14.632682003518999 2.765013685425972 4.050906955378390
14.666843705315999 2.745256840751972 9.877806264783391
14.701005407113000 2.725499996077972 15.704705574188392
14.581722741689999 8.992832206749974 4.062860728841390
14.615884443486999 8.973075362075972 9.889760038246390
14.650046145284000 8.953318517401971 15.716659347651390
14.530763479860999 15.220650728073974 4.074814502304391
14.564925181657999 15.200893883399971 9.901713811709392
14.599086883455000 15.181137038725971 15.728613121114391
3.778013659390149 3.316061720057298 1.724272207132186
3.812175361187149 3.296304875383298 7.551171516537186
3.846337062984149 3.276548030709298 13.378070825942187
3.727054397561149 9.543880241381299 1.736225980595186
3.761216099358149 9.524123396707298 7.563125290000187
3.795377801155149 9.504366552033298 13.390024599405187
3.676095135732149 15.771698762705299 1.748179754058186
3.710256837529149 15.751941918031299 7.575079063463186
3.744418539326149 15.732185073357298 13.401978372868188
10.005046056845149 3.299668932660298 1.728317625649186
10.039207758642149 3.279912087986298 7.555216935054187
10.073369460439149 3.260155243312298 13.382116244459187
9.954086795016149 9.527487453984298 1.740271399112186
9.988248496813149 9.507730609310299 7.567170708517186
10.022410198610149 9.487973764636298 13.394070017922187
9.903127533187149 15.755305975308298 1.752225172575186
9.937289234984149 15.735549130634299 7.579124481980187
9.971450936781149 15.715792285960299 13.406023791385186
16.232078454300147 3.283276145263298 1.732363044166186
16.266240156097147 3.263519300589298 7.559262353571186
16.300401857894148 3.243762455915298 13.386161662976187
16.181119192471147 9.511094666587299 1.744316817629186
16.215280894268147 9.491337821913298 7.571216127034186
16.249442596065148 9.471580977239299 13.398115436439186
16.130159930642147 15.738913187911299 1.756270591092186
16.164321632439147 15.719156343237298 7.583169900497187
16.198483334236148 15.699399498563299 13.410069209902186
2.235410621462523 0.208788063395967 4.045686199092178
2.269572323259523 0.189031218721967 9.872585508497178
2.303734025056523 0.169274374047967 15.699484817902178
2.184451359633523 6.436606584719967 4.057639972555179
2.218613061430523 6.416849740045967 9.884539281960180
2.252774763227523 6.397092895371967 15.711438591365180
2.133492097804523 12.664425106043968 4.069593746018178
2.167653799601523 12.644668261369969 9.896493055423178
2.201815501398523 12.624911416695968 15.723392364828179
8.462443018917522 0.192395275998967 4.049731617609178
8.496604720714522 0.172638431324967 9.876630927014180
8.530766422511523 0.152881586650967 15.703530236419180
8.411483757088522 6.420213797322967 4.061685391072178
8.445645458885522 6.400456952648967 9.888584700477178
8.479807160682522 6.380700107974967 15.715484009882179
8.360524495259522 12.648032318646967 4.073639164535178
8.394686197056522 12.628275473972968 9.900538473940179
8.428847898853522 12.608518629298969 15.727437783345177
14.689475416372524 0.176002488601967 4.053777036126178
14.723637118169524 0.156245643927967 9.880676345531178
14.757798819966524 0.136488799253967 15.707575654936178
14.638516154543524 6.403821009925967 4.065730809589178
14.672677856340524 6.384064165251967 9.892630118994179
14.706839558137524 6.364307320577967 15.719529428399177
14.587556892714524 12.631639531249968 4.077684583052179
14.621718594511524 12.611882686575967 9.904583892457179
14.655880296308524 12.592125841901968 15.731483201862179
3.721133807164701 5.904959976980465 1.721284030420757
3.755295508961702 5.885203132306465 7.548183339825758
3.789457210758701 5.865446287632465 13.375082649230757
3.670174545335701 12.132778498304464 1.733237803883757
3.704336247132701 12.113021653630465 7.560137113288758
3.738497948929701 12.093264808956466 13.387036422693757
3.619215283506701 18.360597019628464 1.745191577346757
3.653376985303701 18.340840174954465 7.572090886751758
3.687538687100701 18.321083330280466 13.398990196156758
9.948166204619701 5.888567189583465 1.725329448937757
9.982327906416701 5.868810344909465 7.552228758342758
10.016489608213702 5.849053500235465 13.379128067747757
9.897206942790701 12.116385710907466 1.737283222400757
9.931368644587701 12.096628866233466 7.564182531805757
9.965530346384702 12.076872021559465 13.391081841210758
9.846247680961701 18.344204232231466 1.749236995863757
9.880409382758701 18.324447387557466 7.576136305268758
9.914571084555702 18.304690542883467 13.403035614673756
16.175198602074701 5.872174402186466 1.729374867454757
16.209360303871701 5.852417557512466 7.556274176859757
16.243522005668702 5.832660712838465 13.383173486264758
16.124239340245701 12.099992923510467 1.741328640917757
16.158401042042701 12.080236078836466 7.568227950322758
16.192562743839702 12.060479234162464 13.395127259727756
16.073280078416701 18.327811444834467 1.753282414380757
16.107441780213701 18.308054600160464 7.580181723785758
16.141603482010701 18.288297755486465 13.407081033190757
0.703991585329861 0.151939458024085 4.066786820830940
0.738153287126861 0.132182613350085 9.893686130235940
0.772314988923861 0.112425768676085 15.720585439640940
0.653032323500861 6.379757979348085 4.078740594293940
0.687194025297861 6.360001134674085 9.905639903698940
0.721355727094861 6.340244290000085 15.732539213103941
0.602073061671861 12.607576500672085 4.090694367756940
0.636234763468861 12.587819655998086 9.917593677161939
0.670396465265861 12.568062811324085 15.744492986566941
6.931023982784861 0.135546670627085 4.070832239347940
6.965185684581861 0.115789825953085 9.897731548752940
6.999347386378862 0.096032981279085 15.724630858157941
6.880064720955861 6.363365191951085 4.082786012810939
6.914226422752861 6.343608347277085 9.909685322215939
6.948388124549862 6.323851502603085 15.736584631620941
6.829105459126861 12.591183713275084 4.094739786273940
6.863267160923861 12.571426868601085 9.921639095678941
6.897428862720862 12.551670023927086 15.748538405083940
13.158056380239861 0.119153883230085 4.074877657864939
13.192218082036861 0.099397038556085 9.901776967269939
13.226379783833861 0.079640193882085 15.728676276674941
13.107097118410861 6.346972404554085 4.086831431327940
13.141258820207861 6.327215559880085 9.913730740732941
13.175420522004861 6.307458715206085 15.740630050137939
13.056137856581861 12.574790925878085 4.098785204790940
13.090299558378861 12.555034081204084 9.925684514195940
13.124461260175861 12.535277236530085 15.752583823600940
5.252550608603736 5.961880499544090 1.700192136374622
5.286712310400736 5.942123654870090 7.527091445779623
5.320874012197736 5.922366810196090 13.353990755184622
5.201591346774736 12.189699020868090 1.712145909837622
5.235753048571736 12.169942176194091 7.539045219242623
5.269914750368736 12.150185331520090 13.365944528647622
5.150632084945736 18.417517542192090 1.724099683300622
5.184793786742736 18.397760697518091 7.550998992705622
5.218955488539736 18.378003852844088 13.377898302110623
11.479583006058736 5.945487712147091 1.704237554891622
11.513744707855736 5.925730867473090 7.531136864296623
11.547906409652736 5.905974022799090 13.358036173701622
11.428623744229736 12.173306233471092 1.716191328354622
11.462785446026736 12.153549388797090 7.543090637759622
11.496947147823736 12.133792544123089 13.369989947164623
11.377664482400736 18.401124754795092 1.728145101817622
11.411826184197736 18.381367910121092 7.555044411222623
11.445987885994736 18.361611065447093 13.381943720627621
17.706615403513737 5.929094924750091 1.708282973408622
17.740777105310734 5.909338080076091 7.535182282813622
17.774938807107738 5.889581235402090 13.362081592218622
17.655656141684737 12.156913446074091 1.720236746871622
17.689817843481734 12.137156601400090 7.547136056276623
17.723979545278738 12.117399756726090 13.374035365681621
17.604696879855737 18.384731967398089 1.732190520334622
17.638858581652734 18.364975122724090 7.559089829739623
17.673020283449738 18.345218278050091 13.385989139144622
0.146084139533422 2.202311198329656 4.491877296465884
0.180245841330422 2.182554353655656 10.318776605870884
0.214407543127422 2.162797508981656 16.145675915275884
0.095124877704422 8.430129719653657 4.503831069928884
0.129286579501422 8.410372874979656 10.330730379333884
0.163448281298422 8.390616030305655 16.157629688738886
0.044165615875422 14.657948240977657 4.515784843391883
0.078327317672422 14.638191396303657 10.342684152796885
0.112489019469422 14.618434551629655 16.169583462201885
6.373116536988422 2.185918410932656 4.495922714982884
6.407278238785422 2.166161566258656 10.322822024387884
6.441439940582423 2.146404721584656 16.149721333792883
6.322157275159422 8.413736932256656 4.507876488445883
6.356318976956422 8.393980087582655 10.334775797850885
6.390480678753423 8.374223242908656 16.161675107255885
6.271198013330422 14.641555453580654 4.519830261908884
6.305359715127422 14.621798608906655 10.346729571313883
6.339521416924423 14.602041764232656 16.173628880718883
12.600148934443421 2.169525623535656 4.499968133499883
12.634310636240421 2.149768778861656 10.326867442904884
12.668472338037422 2.130011934187656 16.153766752309885
12.549189672614421 8.397344144859655 4.511921906962884
12.583351374411421 8.377587300185656 10.338821216367883
12.617513076208422 8.357830455511657 16.165720525772883
12.498230410785421 14.625162666183655 4.523875680425884
12.532392112582421 14.605405821509656 10.350774989830885
12.566553814379422 14.585648976835657 16.177674299235882
5.810373062700976 3.911369456477770 1.275143387377285
5.844534764497976 3.891612611803770 7.102042696782285
5.878696466294977 3.871855767129770 12.928942006187285
5.759413800871976 10.139187977801770 1.287097160840285
5.793575502668976 10.119431133127771 7.113996470245286
5.827737204465977 10.099674288453770 12.940895779650287
5.708454539042976 16.367006499125772 1.299050934303285
5.742616240839976 16.347249654451772 7.125950243708285
5.776777942636977 16.327492809777770 12.952849553113285
12.037405460155977 3.894976669080771 1.279188805894285
12.071567161952977 3.875219824406770 7.106088115299285
12.105728863749977 3.855462979732770 12.932987424704287
11.986446198326977 10.122795190404771 1.291142579357285
12.020607900123977 10.103038345730770 7.118041888762285
12.054769601920977 10.083281501056771 12.944941198167285
11.935486936497977 16.350613711728769 1.303096352820285
11.969648638294977 16.330856867054770 7.129995662225285
12.003810340091977 16.311100022380771 12.956894971630284
18.264437857610975 3.878583881683770 1.283234224411285
18.298599559407975 3.858827037009770 7.110133533816285
18.332761261204976 3.839070192335770 12.937032843221285
18.213478595781975 10.106402403007770 1.295187997874285
18.247640297578975 10.086645558333771 7.122087307279285
18.281801999375975 10.066888713659770 12.948986616684284