DMC-ICE13 ice VIII; Cartesian 4x4x4 supercell
1.0
19.397861480000000 0.000000000000000 0.000000000000000
0.000000000000000 19.397861480000000 0.000000000000000
0.000000000000000 0.000000000000000 28.226055160000001
H O
1024 512
Cartesian
6.781516750000000 7.563033500000000 6.966619500000000
6.781516750000000 7.563033500000000 14.023133290000001
6.781516750000000 7.563033500000000 21.079647080000001
6.781516750000000 7.563033500000000 28.136160870000001
6.781516750000000 12.412498870000000 6.966619500000000
6.781516750000000 12.412498870000000 14.023133290000001
6.781516750000000 12.412498870000000 21.079647080000001
6.781516750000000 12.412498870000000 28.136160870000001
6.781516750000000 17.261964240000001 6.966619500000000
6.781516750000000 17.261964240000001 14.023133290000001
6.781516750000000 17.261964240000001 21.079647080000001
6.781516750000000 17.261964240000001 28.136160870000001
6.781516750000000 22.111429609999998 6.966619500000000
6.781516750000000 22.111429609999998 14.023133290000001
6.781516750000000 22.111429609999998 21.079647080000001
6.781516750000000 22.111429609999998 28.136160870000001
11.630982119999999 7.563033500000000 6.966619500000000
11.630982119999999 7.563033500000000 14.023133290000001
11.630982119999999 7.563033500000000 21.079647080000001
11.630982119999999 7.563033500000000 28.136160870000001
11.630982119999999 12.412498870000000 6.966619500000000
11.630982119999999 12.412498870000000 14.023133290000001
11.630982119999999 12.412498870000000 21.079647080000001
11.630982119999999 12.412498870000000 28.136160870000001
11.630982119999999 17.261964240000001 6.966619500000000
11.630982119999999 17.261964240000001 14.023133290000001
11.630982119999999 17.261964240000001 21.079647080000001
11.630982119999999 17.261964240000001 28.136160870000001
11.630982119999999 22.111429609999998 6.966619500000000
11.630982119999999 22.111429609999998 14.023133290000001
11.630982119999999 22.111429609999998 21.079647080000001
11.630982119999999 22.111429609999998 28.136160870000001
16.480447490000000 7.563033500000000 6.966619500000000
16.480447490000000 7.563033500000000 14.023133290000001
16.480447490000000 7.563033500000000 21.079647080000001
16.480447490000000 7.563033500000000 28.136160870000001
16.480447490000000 12.412498870000000 6.966619500000000
16.480447490000000 12.412498870000000 14.023133290000001
16.480447490000000 12.412498870000000 21.079647080000001
16.480447490000000 12.412498870000000 28.136160870000001
16.480447490000000 17.261964240000001 6.966619500000000
16.480447490000000 17.261964240000001 14.023133290000001
16.480447490000000 17.261964240000001 21.079647080000001
16.480447490000000 17.261964240000001 28.136160870000001
16.480447490000000 22.111429609999998 6.966619500000000
16.480447490000000 22.111429609999998 14.023133290000001
16.480447490000000 22.111429609999998 21.079647080000001
16.480447490000000 22.111429609999998 28.136160870000001
21.329912860000000 7.563033500000000 6.966619500000000
21.329912860000000 7.563033500000000 14.023133290000001
21.329912860000000 7.563033500000000 21.079647080000001
21.329912860000000 7.563033500000000 28.136160870000001
21.329912860000000 12.412498870000000 6.966619500000000
21.329912860000000 12.412498870000000 14.023133290000001
21.329912860000000 12.412498870000000 21.079647080000001
21.329912860000000 12.412498870000000 28.136160870000001
21.329912860000000 17.261964240000001 6.966619500000000
21.329912860000000 17.261964240000001 14.023133290000001
21.329912860000000 17.261964240000001 21.079647080000001
21.329912860000000 17.261964240000001 28.136160870000001
21.329912860000000 22.111429609999998 6.966619500000000
21.329912860000000 22.111429609999998 14.023133290000001
21.329912860000000 22.111429609999998 21.079647080000001
21.329912860000000 22.111429609999998 28.136160870000001
9.206249250000001 9.987766000000001 10.494876500000000
9.206249250000001 9.987766000000001 17.551390290000001
9.206249250000001 9.987766000000001 24.607904080000001
9.206249250000001 9.987766000000001 31.664417870000001
9.206249250000001 14.837231370000001 10.494876500000000
9.206249250000001 14.837231370000001 17.551390290000001
9.206249250000001 14.837231370000001 24.607904080000001
9.206249250000001 14.837231370000001 31.664417870000001
9.206249250000001 19.686696740000002 10.494876500000000
9.206249250000001 19.686696740000002 17.551390290000001
9.206249250000001 19.686696740000002 24.607904080000001
9.206249250000001 19.686696740000002 31.664417870000001
9.206249250000001 24.536162109999999 10.494876500000000
9.206249250000001 24.536162109999999 17.551390290000001
9.206249250000001 24.536162109999999 24.607904080000001
9.206249250000001 24.536162109999999 31.664417870000001
14.055714620000000 9.987766000000001 10.494876500000000
14.055714620000000 9.987766000000001 17.551390290000001
14.055714620000000 9.987766000000001 24.607904080000001
14.055714620000000 9.987766000000001 31.664417870000001
14.055714620000000 14.837231370000001 10.494876500000000
14.055714620000000 14.837231370000001 17.551390290000001
14.055714620000000 14.837231370000001 24.607904080000001
14.055714620000000 14.837231370000001 31.664417870000001
14.055714620000000 19.686696740000002 10.494876500000000
14.055714620000000 19.686696740000002 17.551390290000001
14.055714620000000 19.686696740000002 24.607904080000001
14.055714620000000 19.686696740000002 31.664417870000001
14.055714620000000 24.536162109999999 10.494876500000000
14.055714620000000 24.536162109999999 17.551390290000001
14.055714620000000 24.536162109999999 24.607904080000001
14.055714620000000 24.536162109999999 31.664417870000001
18.905179990000001 9.987766000000001 10.494876500000000
18.905179990000001 9.987766000000001 17.551390290000001
18.905179990000001 9.987766000000001 24.607904080000001
18.905179990000001 9.987766000000001 31.664417870000001
18.905179990000001 14.837231370000001 10.494876500000000
18.905179990000001 14.837231370000001 17.551390290000001
18.905179990000001 14.837231370000001 24.607904080000001
18.905179990000001 14.837231370000001 31.664417870000001
18.905179990000001 19.686696740000002 10.494876500000000
18.905179990000001 19.686696740000002 17.551390290000001
18.905179990000001 19.686696740000002 24.607904080000001
18.905179990000001 19.686696740000002 31.664417870000001
18.905179990000001 24.536162109999999 10.494876500000000
18.905179990000001 24.536162109999999 17.551390290000001
18.905179990000001 24.536162109999999 24.607904080000001
18.905179990000001 24.536162109999999 31.664417870000001
23.754645359999998 9.987766000000001 10.494876500000000
23.754645359999998 9.987766000000001 17.551390290000001
23.754645359999998 9.987766000000001 24.607904080000001
23.754645359999998 9.987766000000001 31.664417870000001
23.754645359999998 14.837231370000001 10.494876500000000
23.754645359999998 14.837231370000001 17.551390290000001
23.754645359999998 14.837231370000001 24.607904080000001
23.754645359999998 14.837231370000001 31.664417870000001
23.754645359999998 19.686696740000002 10.494876500000000
23.754645359999998 19.686696740000002 17.551390290000001
23.754645359999998 19.686696740000002 24.607904080000001
23.754645359999998 19.686696740000002 31.664417870000001
23.754645359999998 24.536162109999999 10.494876500000000
23.754645359999998 24.536162109999999 17.551390290000001
23.754645359999998 24.536162109999999 24.607904080000001
23.754645359999998 24.536162109999999 31.664417870000001
6.000000000000000 9.206249250000001 8.730748000000000
6.000000000000000 9.206249250000001 15.787261790000001
6.000000000000000 9.206249250000001 22.843775579999999
6.000000000000000 9.206249250000001 29.900289370000003
6.000000000000000 14.055714620000000 8.730748000000000
6.000000000000000 14.055714620000000 15.787261790000001
6.000000000000000 14.055714620000000 22.843775579999999
6.000000000000000 14.055714620000000 29.900289370000003
6.000000000000000 18.905179990000001 8.730748000000000
6.000000000000000 18.905179990000001 15.787261790000001
6.000000000000000 18.905179990000001 22.843775579999999
6.000000000000000 18.905179990000001 29.900289370000003
6.000000000000000 23.754645359999998 8.730748000000000
6.000000000000000 23.754645359999998 15.787261790000001
6.000000000000000 23.754645359999998 22.843775579999999
6.000000000000000 23.754645359999998 29.900289370000003
10.849465370000001 9.206249250000001 8.730748000000000
10.849465370000001 9.206249250000001 15.787261790000001
10.849465370000001 9.206249250000001 22.843775579999999
10.849465370000001 9.206249250000001 29.900289370000003
10.849465370000001 14.055714620000000 8.730748000000000
10.849465370000001 14.055714620000000 15.787261790000001
10.849465370000001 14.055714620000000 22.843775579999999
10.849465370000001 14.055714620000000 29.900289370000003
10.849465370000001 18.905179990000001 8.730748000000000
10.849465370000001 18.905179990000001 15.787261790000001
10.849465370000001 18.905179990000001 22.843775579999999
10.849465370000001 18.905179990000001 29.900289370000003
10.849465370000001 23.754645359999998 8.730748000000000
10.849465370000001 23.754645359999998 15.787261790000001
10.849465370000001 23.754645359999998 22.843775579999999
10.849465370000001 23.754645359999998 29.900289370000003
15.698930740000000 9.206249250000001 8.730748000000000
15.698930740000000 9.206249250000001 15.787261790000001
15.698930740000000 9.206249250000001 22.843775579999999
15.698930740000000 9.206249250000001 29.900289370000003
15.698930740000000 14.055714620000000 8.730748000000000
15.698930740000000 14.055714620000000 15.787261790000001
15.698930740000000 14.055714620000000 22.843775579999999
15.698930740000000 14.055714620000000 29.900289370000003
15.698930740000000 18.905179990000001 8.730748000000000
15.698930740000000 18.905179990000001 15.787261790000001
15.698930740000000 18.905179990000001 22.843775579999999
15.698930740000000 18.905179990000001 29.900289370000003
15.698930740000000 23.754645359999998 8.730748000000000
15.698930740000000 23.754645359999998 15.787261790000001
15.698930740000000 23.754645359999998 22.843775579999999
15.698930740000000 23.754645359999998 29.900289370000003
20.548396109999999 9.206249250000001 8.730748000000000
20.548396109999999 9.206249250000001 15.787261790000001
20.548396109999999 9.206249250000001 22.843775579999999
20.548396109999999 9.206249250000001 29.900289370000003
20.548396109999999 14.055714620000000 8.730748000000000
20.548396109999999 14.055714620000000 15.787261790000001
20.548396109999999 14.055714620000000 22.843775579999999
20.548396109999999 14.055714620000000 29.900289370000003
20.548396109999999 18.905179990000001 8.730748000000000
20.548396109999999 18.905179990000001 15.787261790000001
20.548396109999999 18.905179990000001 22.843775579999999
20.548396109999999 18.905179990000001 29.900289370000003
20.548396109999999 23.754645359999998 8.730748000000000
20.548396109999999 23.754645359999998 15.787261790000001
20.548396109999999 23.754645359999998 22.843775579999999
20.548396109999999 23.754645359999998 29.900289370000003
9.987766000000001 6.781516750000000 12.259005000000000
9.987766000000001 6.781516750000000 19.315518789999999
9.987766000000001 6.781516750000000 26.372032580000003
9.987766000000001 6.781516750000000 33.428546369999999
9.987766000000001 11.630982119999999 12.259005000000000
9.987766000000001 11.630982119999999 19.315518789999999
9.987766000000001 11.630982119999999 26.372032580000003
9.987766000000001 11.630982119999999 33.428546369999999
9.987766000000001 16.480447490000000 12.259005000000000
9.987766000000001 16.480447490000000 19.315518789999999
9.987766000000001 16.480447490000000 26.372032580000003
9.987766000000001 16.480447490000000 33.428546369999999
9.987766000000001 21.329912860000000 12.259005000000000
9.987766000000001 21.329912860000000 19.315518789999999
9.987766000000001 21.329912860000000 26.372032580000003
9.987766000000001 21.329912860000000 33.428546369999999
14.837231370000001 6.781516750000000 12.259005000000000
14.837231370000001 6.781516750000000 19.315518789999999
14.837231370000001 6.781516750000000 26.372032580000003
14.837231370000001 6.781516750000000 33.428546369999999
14.837231370000001 11.630982119999999 12.259005000000000
14.837231370000001 11.630982119999999 19.315518789999999
14.837231370000001 11.630982119999999 26.372032580000003
14.837231370000001 11.630982119999999 33.428546369999999
14.837231370000001 16.480447490000000 12.259005000000000
14.837231370000001 16.480447490000000 19.315518789999999
14.837231370000001 16.480447490000000 26.372032580000003
14.837231370000001 16.480447490000000 33.428546369999999
14.837231370000001 21.329912860000000 12.259005000000000
14.837231370000001 21.329912860000000 19.315518789999999
14.837231370000001 21.329912860000000 26.372032580000003
14.837231370000001 21.329912860000000 33.428546369999999
19.686696740000002 6.781516750000000 12.259005000000000
19.686696740000002 6.781516750000000 19.315518789999999
19.686696740000002 6.781516750000000 26.372032580000003
19.686696740000002 6.781516750000000 33.428546369999999
19.686696740000002 11.630982119999999 12.259005000000000
19.686696740000002 11.630982119999999 19.315518789999999
19.686696740000002 11.630982119999999 26.372032580000003
19.686696740000002 11.630982119999999 33.428546369999999
19.686696740000002 16.480447490000000 12.259005000000000
19.686696740000002 16.480447490000000 19.315518789999999
19.686696740000002 16.480447490000000 26.372032580000003
19.686696740000002 16.480447490000000 33.428546369999999
19.686696740000002 21.329912860000000 12.259005000000000
19.686696740000002 21.329912860000000 19.315518789999999
19.686696740000002 21.329912860000000 26.372032580000003
19.686696740000002 21.329912860000000 33.428546369999999
24.536162109999999 6.781516750000000 12.259005000000000
24.536162109999999 6.781516750000000 19.315518789999999
24.536162109999999 6.781516750000000 26.372032580000003
24.536162109999999 6.781516750000000 33.428546369999999
24.536162109999999 11.630982119999999 12.259005000000000
24.536162109999999 11.630982119999999 19.315518789999999
24.536162109999999 11.630982119999999 26.372032580000003
24.536162109999999 11.630982119999999 33.428546369999999
24.536162109999999 16.480447490000000 12.259005000000000
24.536162109999999 16.480447490000000 19.315518789999999
24.536162109999999 16.480447490000000 26.372032580000003
24.536162109999999 16.480447490000000 33.428546369999999
24.536162109999999 21.329912860000000 12.259005000000000
24.536162109999999 21.329912860000000 19.315518789999999
24.536162109999999 21.329912860000000 26.372032580000003
24.536162109999999 21.329912860000000 33.428546369999999
9.206249250000001 7.563033500000000 7.764128500000000
9.206249250000001 7.563033500000000 14.820642290000000
9.206249250000001 7.563033500000000 21.877156079999999
9.206249250000001 7.563033500000000 28.933669870000003
9.206249250000001 12.412498870000000 7.764128500000000
9.206249250000001 12.412498870000000 14.820642290000000
9.206249250000001 12.412498870000000 21.877156079999999
9.206249250000001 12.412498870000000 28.933669870000003
9.206249250000001 17.261964240000001 7.764128500000000
9.206249250000001 17.261964240000001 14.820642290000000
9.206249250000001 17.261964240000001 21.877156079999999
9.206249250000001 17.261964240000001 28.933669870000003
9.206249250000001 22.111429609999998 7.764128500000000
9.206249250000001 22.111429609999998 14.820642290000000
9.206249250000001 22.111429609999998 21.877156079999999
9.206249250000001 22.111429609999998 28.933669870000003
14.055714620000000 7.563033500000000 7.764128500000000
14.055714620000000 7.563033500000000 14.820642290000000
14.055714620000000 7.563033500000000 21.877156079999999
14.055714620000000 7.563033500000000 28.933669870000003
14.055714620000000 12.412498870000000 7.764128500000000
14.055714620000000 12.412498870000000 14.820642290000000
14.055714620000000 12.412498870000000 21.877156079999999
14.055714620000000 12.412498870000000 28.933669870000003
14.055714620000000 17.261964240000001 7.764128500000000
14.055714620000000 17.261964240000001 14.820642290000000
14.055714620000000 17.261964240000001 21.877156079999999
14.055714620000000 17.261964240000001 28.933669870000003
14.055714620000000 22.111429609999998 7.764128500000000
14.055714620000000 22.111429609999998 14.820642290000000
14.055714620000000 22.111429609999998 21.877156079999999
14.055714620000000 22.111429609999998 28.933669870000003
18.905179990000001 7.563033500000000 7.764128500000000
18.905179990000001 7.563033500000000 14.820642290000000
18.905179990000001 7.563033500000000 21.877156079999999
18.905179990000001 7.563033500000000 28.933669870000003
18.905179990000001 12.412498870000000 7.764128500000000
18.905179990000001 12.412498870000000 14.820642290000000
18.905179990000001 12.412498870000000 21.877156079999999
18.905179990000001 12.412498870000000 28.933669870000003
18.905179990000001 17.261964240000001 7.764128500000000
18.905179990000001 17.261964240000001 14.820642290000000
18.905179990000001 17.261964240000001 21.877156079999999
18.905179990000001 17.261964240000001 28.933669870000003
18.905179990000001 22.111429609999998 7.764128500000000
18.905179990000001 22.111429609999998 14.820642290000000
18.905179990000001 22.111429609999998 21.877156079999999
18.905179990000001 22.111429609999998 28.933669870000003
23.754645359999998 7.563033500000000 7.764128500000000
23.754645359999998 7.563033500000000 14.820642290000000
23.754645359999998 7.563033500000000 21.877156079999999
23.754645359999998 7.563033500000000 28.933669870000003
23.754645359999998 12.412498870000000 7.764128500000000
23.754645359999998 12.412498870000000 14.820642290000000
23.754645359999998 12.412498870000000 21.877156079999999
23.754645359999998 12.412498870000000 28.933669870000003
23.754645359999998 17.261964240000001 7.764128500000000
23.754645359999998 17.261964240000001 14.820642290000000
23.754645359999998 17.261964240000001 21.877156079999999
23.754645359999998 17.261964240000001 28.933669870000003
23.754645359999998 22.111429609999998 7.764128500000000
23.754645359999998 22.111429609999998 14.820642290000000
23.754645359999998 22.111429609999998 21.877156079999999
23.754645359999998 22.111429609999998 28.933669870000003
9.206249250000001 6.000000000000000 7.764128500000000
9.206249250000001 6.000000000000000 14.820642290000000
9.206249250000001 6.000000000000000 21.877156079999999
9.206249250000001 6.000000000000000 28.933669870000003
9.206249250000001 10.849465370000001 7.764128500000000
9.206249250000001 10.849465370000001 14.820642290000000
9.206249250000001 10.849465370000001 21.877156079999999
9.206249250000001 10.849465370000001 28.933669870000003
9.206249250000001 15.698930740000000 7.764128500000000
9.206249250000001 15.698930740000000 14.820642290000000
9.206249250000001 15.698930740000000 21.877156079999999
9.206249250000001 15.698930740000000 28.933669870000003
9.206249250000001 20.548396109999999 7.764128500000000
9.206249250000001 20.548396109999999 14.820642290000000
9.206249250000001 20.548396109999999 21.877156079999999
9.206249250000001 20.548396109999999 28.933669870000003
14.055714620000000 6.000000000000000 7.764128500000000
14.055714620000000 6.000000000000000 14.820642290000000
14.055714620000000 6.000000000000000 21.877156079999999
14.055714620000000 6.000000000000000 28.933669870000003
14.055714620000000 10.849465370000001 7.764128500000000
14.055714620000000 10.849465370000001 14.820642290000000
14.055714620000000 10.849465370000001 21.877156079999999
14.055714620000000 10.849465370000001 28.933669870000003
14.055714620000000 15.698930740000000 7.764128500000000
14.055714620000000 15.698930740000000 14.820642290000000
14.055714620000000 15.698930740000000 21.877156079999999
14.055714620000000 15.698930740000000 28.933669870000003
14.055714620000000 20.548396109999999 7.764128500000000
14.055714620000000 20.548396109999999 14.820642290000000
14.055714620000000 20.548396109999999 21.877156079999999
14.055714620000000 20.548396109999999 28.933669870000003
18.905179990000001 6.000000000000000 7.764128500000000
18.905179990000001 6.000000000000000 14.820642290000000
18.905179990000001 6.000000000000000 21.877156079999999
18.905179990000001 6.000000000000000 28.933669870000003
18.905179990000001 10.849465370000001 7.764128500000000
18.905179990000001 10.849465370000001 14.820642290000000
18.905179990000001 10.849465370000001 21.877156079999999
18.905179990000001 10.849465370000001 28.933669870000003
18.905179990000001 15.698930740000000 7.764128500000000
18.905179990000001 15.698930740000000 14.820642290000000
18.905179990000001 15.698930740000000 21.877156079999999
18.905179990000001 15.698930740000000 28.933669870000003
18.905179990000001 20.548396109999999 7.764128500000000
18.905179990000001 20.548396109999999 14.820642290000000
18.905179990000001 20.548396109999999 21.877156079999999
18.905179990000001 20.548396109999999 28.933669870000003
23.754645359999998 6.000000000000000 7.764128500000000
23.754645359999998 6.000000000000000 14.820642290000000
23.754645359999998 6.000000000000000 21.877156079999999
23.754645359999998 6.000000000000000 28.933669870000003
23.754645359999998 10.849465370000001 7.764128500000000
23.754645359999998 10.849465370000001 14.820642290000000
23.754645359999998 10.849465370000001 21.877156079999999
23.754645359999998 10.849465370000001 28.933669870000003
23.754645359999998 15.698930740000000 7.764128500000000
23.754645359999998 15.698930740000000 14.820642290000000
23.754645359999998 15.698930740000000 21.877156079999999
23.754645359999998 15.698930740000000 28.933669870000003
23.754645359999998 20.548396109999999 7.764128500000000
23.754645359999998 20.548396109999999 14.820642290000000
23.754645359999998 20.548396109999999 21.877156079999999
23.754645359999998 20.548396109999999 28.933669870000003
9.987766000000001 9.206249250000001 6.000000000000000
9.987766000000001 9.206249250000001 13.056513790000000
9.987766000000001 9.206249250000001 20.113027580000001
9.987766000000001 9.206249250000001 27.169541370000001
9.987766000000001 14.055714620000000 6.000000000000000
9.987766000000001 14.055714620000000 13.056513790000000
9.987766000000001 14.055714620000000 20.113027580000001
9.987766000000001 14.055714620000000 27.169541370000001
9.987766000000001 18.905179990000001 6.000000000000000
9.987766000000001 18.905179990000001 13.056513790000000
9.987766000000001 18.905179990000001 20.113027580000001
9.987766000000001 18.905179990000001 27.169541370000001
9.987766000000001 23.754645359999998 6.000000000000000
9.987766000000001 23.754645359999998 13.056513790000000
9.987766000000001 23.754645359999998 20.113027580000001
9.987766000000001 23.754645359999998 27.169541370000001
14.837231370000001 9.206249250000001 6.000000000000000
14.837231370000001 9.206249250000001 13.056513790000000
14.837231370000001 9.206249250000001 20.113027580000001
14.837231370000001 9.206249250000001 27.169541370000001
14.837231370000001 14.055714620000000 6.000000000000000
14.837231370000001 14.055714620000000 13.056513790000000
14.837231370000001 14.055714620000000 20.113027580000001
14.837231370000001 14.055714620000000 27.169541370000001
14.837231370000001 18.905179990000001 6.000000000000000
14.837231370000001 18.905179990000001 13.056513790000000
14.837231370000001 18.905179990000001 20.113027580000001
14.837231370000001 18.905179990000001 27.169541370000001
14.837231370000001 23.754645359999998 6.000000000000000
14.837231370000001 23.754645359999998 13.056513790000000
14.837231370000001 23.754645359999998 20.113027580000001
14.837231370000001 23.754645359999998 27.169541370000001
19.686696740000002 9.206249250000001 6.000000000000000
19.686696740000002 9.206249250000001 13.056513790000000
19.686696740000002 9.206249250000001 20.113027580000001
19.686696740000002 9.206249250000001 27.169541370000001
19.686696740000002 14.055714620000000 6.000000000000000
19.686696740000002 14.055714620000000 13.056513790000000
19.686696740000002 14.055714620000000 20.113027580000001
19.686696740000002 14.055714620000000 27.169541370000001
19.686696740000002 18.905179990000001 6.000000000000000
19.686696740000002 18.905179990000001 13.056513790000000
19.686696740000002 18.905179990000001 20.113027580000001
19.686696740000002 18.905179990000001 27.169541370000001
19.686696740000002 23.754645359999998 6.000000000000000
19.686696740000002 23.754645359999998 13.056513790000000
19.686696740000002 23.754645359999998 20.113027580000001
19.686696740000002 23.754645359999998 27.169541370000001
24.536162109999999 9.206249250000001 6.000000000000000
24.536162109999999 9.206249250000001 13.056513790000000
24.536162109999999 9.206249250000001 20.113027580000001
24.536162109999999 9.206249250000001 27.169541370000001
24.536162109999999 14.055714620000000 6.000000000000000
24.536162109999999 14.055714620000000 13.056513790000000
24.536162109999999 14.055714620000000 20.113027580000001
24.536162109999999 14.055714620000000 27.169541370000001
24.536162109999999 18.905179990000001 6.000000000000000
24.536162109999999 18.905179990000001 13.056513790000000
24.536162109999999 18.905179990000001 20.113027580000001
24.536162109999999 18.905179990000001 27.169541370000001
24.536162109999999 23.754645359999998 6.000000000000000
24.536162109999999 23.754645359999998 13.056513790000000
24.536162109999999 23.754645359999998 20.113027580000001
24.536162109999999 23.754645359999998 27.169541370000001
6.000000000000000 6.781516750000000 9.528257000000000
6.000000000000000 6.781516750000000 16.584770790000000
6.000000000000000 6.781516750000000 23.641284580000001
6.000000000000000 6.781516750000000 30.697798370000001
6.000000000000000 11.630982119999999 9.528257000000000
6.000000000000000 11.630982119999999 16.584770790000000
6.000000000000000 11.630982119999999 23.641284580000001
6.000000000000000 11.630982119999999 30.697798370000001
6.000000000000000 16.480447490000000 9.528257000000000
6.000000000000000 16.480447490000000 16.584770790000000
6.000000000000000 16.480447490000000 23.641284580000001
6.000000000000000 16.480447490000000 30.697798370000001
6.000000000000000 21.329912860000000 9.528257000000000
6.000000000000000 21.329912860000000 16.584770790000000
6.000000000000000 21.329912860000000 23.641284580000001
6.000000000000000 21.329912860000000 30.697798370000001
10.849465370000001 6.781516750000000 9.528257000000000
10.849465370000001 6.781516750000000 16.584770790000000
10.849465370000001 6.781516750000000 23.641284580000001
10.849465370000001 6.781516750000000 30.697798370000001
10.849465370000001 11.630982119999999 9.528257000000000
10.849465370000001 11.630982119999999 16.584770790000000
10.849465370000001 11.630982119999999 23.641284580000001
10.849465370000001 11.630982119999999 30.697798370000001
10.849465370000001 16.480447490000000 9.528257000000000
10.849465370000001 16.480447490000000 16.584770790000000
10.849465370000001 16.480447490000000 23.641284580000001
10.849465370000001 16.480447490000000 30.697798370000001
10.849465370000001 21.329912860000000 9.528257000000000
10.849465370000001 21.329912860000000 16.584770790000000
10.849465370000001 21.329912860000000 23.641284580000001
10.849465370000001 21.329912860000000 30.697798370000001
15.698930740000000 6.781516750000000 9.528257000000000
15.698930740000000 6.781516750000000 16.584770790000000
15.698930740000000 6.781516750000000 23.641284580000001
15.698930740000000 6.781516750000000 30.697798370000001
15.698930740000000 11.630982119999999 9.528257000000000
15.698930740000000 11.630982119999999 16.584770790000000
15.698930740000000 11.630982119999999 23.641284580000001
15.698930740000000 11.630982119999999 30.697798370000001
15.698930740000000 16.480447490000000 9.528257000000000
15.698930740000000 16.480447490000000 16.584770790000000
15.698930740000000 16.480447490000000 23.641284580000001
15.698930740000000 16.480447490000000 30.697798370000001
15.698930740000000 21.329912860000000 9.528257000000000
15.698930740000000 21.329912860000000 16.584770790000000
15.698930740000000 21.329912860000000 23.641284580000001
15.698930740000000 21.329912860000000 30.697798370000001
20.548396109999999 6.781516750000000 9.528257000000000
20.548396109999999 6.781516750000000 16.584770790000000
20.548396109999999 6.781516750000000 23.641284580000001
20.548396109999999 6.781516750000000 30.697798370000001
20.548396109999999 11.630982119999999 9.528257000000000
20.548396109999999 11.630982119999999 16.584770790000000
20.548396109999999 11.630982119999999 23.641284580000001
20.548396109999999 11.630982119999999 30.697798370000001
20.548396109999999 16.480447490000000 9.528257000000000
20.548396109999999 16.480447490000000 16.584770790000000
20.548396109999999 16.480447490000000 23.641284580000001
20.548396109999999 16.480447490000000 30.697798370000001
20.548396109999999 21.329912860000000 9.528257000000000
20.548396109999999 21.329912860000000 16.584770790000000
20.548396109999999 21.329912860000000 23.641284580000001
20.548396109999999 21.329912860000000 30.697798370000001
8.424732499999999 9.206249250000001 6.000000000000000
8.424732499999999 9.206249250000001 13.056513790000000
8.424732499999999 9.206249250000001 20.113027580000001
8.424732499999999 9.206249250000001 27.169541370000001
8.424732499999999 14.055714620000000 6.000000000000000
8.424732499999999 14.055714620000000 13.056513790000000
8.424732499999999 14.055714620000000 20.113027580000001
8.424732499999999 14.055714620000000 27.169541370000001
8.424732499999999 18.905179990000001 6.000000000000000
8.424732499999999 18.905179990000001 13.056513790000000
8.424732499999999 18.905179990000001 20.113027580000001
8.424732499999999 18.905179990000001 27.169541370000001
8.424732499999999 23.754645359999998 6.000000000000000
8.424732499999999 23.754645359999998 13.056513790000000
8.424732499999999 23.754645359999998 20.113027580000001
8.424732499999999 23.754645359999998 27.169541370000001