&GLOBAL
  PRINT_LEVEL LOW
  PROJECT anthracene_GFN1_mol_geoopt
  RUN_TYPE GEO_OPT
&END GLOBAL

&FORCE_EVAL
  METHOD Quickstep
  &DFT
    &QS
      EPS_DEFAULT 1.0E-12
      METHOD xTB
      &XTB
        GFN_TYPE TBLITE
        &TBLITE
          METHOD GFN1
          ACCURACY 0.1
        &END TBLITE
      &END XTB
    &END QS
    &POISSON
      PERIODIC NONE
    &END POISSON
    &SCF
      EPS_SCF 1.0E-9
      MAX_SCF 300
      SCF_GUESS MOPAC
      &MIXING
        METHOD DIRECT_P_MIXING
        ALPHA 0.2
      &END MIXING
    &END SCF
  &END DFT
  &SUBSYS
    &CELL
      ABC 30.0 30.0 30.0
      PERIODIC NONE
    &END CELL
    &COORD
      C  -7.525940000000 -1.903040000000 -0.014400000000
      C  -6.154290000000 -1.902280000000 -0.009450000000
      C  -5.418240000000 -0.674590000000 -0.010160000000
      C  -6.150950000000  0.571800000000 -0.016160000000
      C  -7.581620000000  0.525740000000 -0.021180000000
      C  -8.249380000000 -0.672410000000 -0.020360000000
      C  -4.016820000000 -0.641670000000 -0.005280000000
      C  -5.440620000000  1.780320000000 -0.016900000000
      C  -4.039200000000  1.813240000000 -0.012010000000
      C  -3.306490000000  0.566850000000 -0.006060000000
      C  -1.875810000000  0.612900000000 -0.001150000000
      H  -1.326050000000 -0.324810000000  0.003280000000
      C  -1.208050000000  1.811050000000 -0.002060000000
      C  -1.931490000000  3.041680000000 -0.007900000000
      C  -3.303150000000  3.040930000000 -0.012720000000
      H  -3.465530000000 -1.579460000000 -0.000760000000
      H  -8.070700000000 -2.842660000000 -0.013830000000
      H  -5.602320000000 -2.838700000000 -0.004880000000
      H  -8.131390000000  1.463460000000 -0.025680000000
      H  -9.335320000000 -0.691410000000 -0.024240000000
      H  -5.991900000000  2.718120000000 -0.021380000000
      H  -0.122120000000  1.830060000000  0.001710000000
      H  -1.386740000000  3.981300000000 -0.008520000000
      H  -3.855110000000  3.977350000000 -0.017150000000
    &END COORD
  &END SUBSYS
&END FORCE_EVAL

&MOTION
  &GEO_OPT
    OPTIMIZER BFGS
    MAX_ITER 200
  &END GEO_OPT
&END MOTION
