DMC-ICE13 ice XVII; Cartesian 2x2x2 supercell
1.0
6.234752790005758 10.752349190520000 -0.040829816338000
-6.200940009603919 10.773204536568000 -0.058611368388000
-0.017446395081300 0.055293675010000 11.885618629412001
H O
96 48
Cartesian
2.449421407932562 5.647847862745304 1.136540975676218
2.440698210391911 5.675494700250304 7.079350290382219
-0.651048596869397 11.034450131029304 1.107235291482218
-0.659771794410047 11.062096968534306 7.050044606188218
5.566797802935441 11.024022458005305 1.116126067507218
5.558074605394791 11.051669295510305 7.058935382213218
2.466327798133481 16.410624726289306 1.086820383313218
2.457604600592831 16.438271563794306 7.029629698019218
-2.907344793860667 5.097306504470466 3.112551681508873
-2.916067991401316 5.124953341975466 9.055360996214873
-6.007814798662626 10.483908772754466 3.083245997314873
-6.016537996203275 10.511555610259467 9.026055312020873
0.210031601142212 10.473481099730467 3.092136773339873
0.201308403601562 10.501127937235466 9.034946088045874
-2.890438403659747 15.860083368014468 3.062831089145873
-2.899161601200396 15.887730205519468 9.005640403851874
0.252290062448501 0.753547956079230 5.118155151367717
0.243566864907851 0.781194793584230 11.060964466073717
-2.848179942353459 6.140150224363230 5.088849467173717
-2.856903139894109 6.167797061868231 11.031658781879717
3.369666457451380 6.129722551339230 5.097740243198717
3.360943259910730 6.157369388844231 11.040549557904718
0.269196452649420 11.516324819623232 5.068434559004717
0.260473255108770 11.543971657128232 11.011243873710718
2.039493633513908 4.154625516557047 1.532720868226767
2.030770435973258 4.182272354062047 7.475530182932768
-1.060976371288051 9.541227784841048 1.503415184032767
-1.069699568828702 9.568874622346048 7.446224498738768
5.156870028516785 9.530800111817047 1.512305960057768
5.148146830976136 9.558446949322047 7.455115274763767
2.056400023714828 14.917402380101048 1.483000275863767
2.047676826174178 14.945049217606048 7.425809590569767
-1.407882366168769 5.490504049025038 3.502873169000408
-1.416605563709419 5.518150886530038 9.445682483706408
-4.508352370970728 10.877106317309039 3.473567484806408
-4.517075568511379 10.904753154814038 9.416376799512408
1.709494028834110 10.866678644285038 3.482458260831407
1.700770831293460 10.894325481790037 9.425267575537408
-1.390975975967849 16.253280912569039 3.453152576637407
-1.399699173508499 16.280927750074039 9.395961891343408
-0.838010823999108 1.857654470505858 5.501496756265968
-0.846734021539758 1.885301308010858 11.444306070971969
-3.938480828801067 7.244256738789858 5.472191072071968
-3.947204026341717 7.271903576294858 11.415000386777969
2.279365571003771 7.233829065765858 5.481081848096968
2.270642373463121 7.261475903270858 11.423891162802969
-0.821104433798188 12.620431334049860 5.451776163902968
-0.829827631338838 12.648078171554859 11.394585478608969
0.717435536797980 5.824670091825422 2.538224208004126
0.708712339257330 5.852316929330422 8.481033522710128
-2.383034468003979 11.211272360109422 2.508918523810126
-2.391757665544629 11.238919197614422 8.451727838516128
3.834811931800859 11.200844687085421 2.517809299835126
3.826088734260209 11.228491524590423 8.460618614541126
0.734341926998900 16.587446955369423 2.488503615641126
0.725618729458250 16.615093792874422 8.431312930347126
0.924044234319014 8.896542456136281 4.505184581867880
0.915321036778364 8.924189293641280 10.447993896573880
-2.176425770482945 14.283144724420282 4.475878897673880
-2.185148968023596 14.310791561925281 10.418688212379880
4.041420629321893 14.272717051396281 4.484769673698880
4.032697431781243 14.300363888901281 10.427578988404880
0.940950624519934 19.659319319680282 4.455463989504880
0.932227426979284 19.686966157185282 10.398273304210880
-1.827260260271878 7.529512060820658 0.546014179415357
-1.835983457812528 7.557158898325659 6.488823494121357
-4.927730265073838 12.916114329104659 0.516708495221357
-4.936453462614488 12.943761166609658 6.459517809927357
1.290116134731001 12.905686656080658 0.525599271246357
1.281392937190351 12.933333493585659 6.468408585952357
-1.810353870070958 18.292288924364659 0.496293587052357
-1.819077067611608 18.319935761869658 6.439102901758357
-0.663384093350417 7.340277832327126 1.630596766133060
-0.672107290891067 7.367924669832126 7.573406080839060
-3.763854098152376 12.726880100611126 1.601291081939060
-3.772577295693027 12.754526938116125 7.544100396645060
2.453992301652461 12.716452427587125 1.610181857964060
2.445269104111811 12.744099265092126 7.552991172670060
-0.646477703149498 18.103054695871126 1.580876173770060
-0.655200900690147 18.130701533376126 7.523685488476060
0.300625059352898 6.935217472820593 3.614728761766080
0.291901861812248 6.962864310325593 9.557538076472081
-2.799844945449061 12.321819741104594 3.585423077572080
-2.808568142989712 12.349466578609594 9.528232392278081
3.418001454355776 12.311392068080593 3.594313853597080
3.409278256815126 12.339038905585593 9.537123168303081
0.317531449553818 17.697994336364594 3.565008169403080
0.308808252013168 17.725641173869594 9.507817484109081
0.173009746734761 7.988958098801410 5.590652401835019
0.164286549194111 8.016604936306409 11.533461716541019
-2.927460258067198 13.375560367085409 5.561346717641019
-2.936183455607848 13.403207204590410 11.504156032347019
3.290386141737640 13.365132694061410 5.570237493666019
3.281662944196990 13.392779531566411 11.513046808372019
0.189916136935681 18.751734962345409 5.540931809472019
0.181192939395031 18.779381799850412 11.483741124178019
-0.077790226315320 1.323933249602572 5.872738707363856
-0.086513423855970 1.351580087107572 11.815548022069857
-3.178260231117280 6.710535517886573 5.843433023169856
-3.186983428657930 6.738182355391573 11.786242337875857
3.039586168687558 6.700107844862573 5.852323799194856
3.030862971146909 6.727754682367573 11.795133113900857
-0.060883836114400 12.086710113146573 5.823018115000856
-0.069607033655050 12.114356950651572 11.765827429706857
2.121989241367843 5.082768049158548 1.896254253800760
2.113266043827194 5.110414886663548 7.839063568506761
-0.978480763434115 10.469370317442548 1.866948569606760
-0.987203960974766 10.497017154947549 7.809757884312761
5.239365636370724 10.458942644418549 1.875839345631760
5.230642438830072 10.486589481923549 7.818648660337761
2.138895631568763 15.845544912702550 1.846533661437760
2.130172434028113 15.873191750207550 7.789342976143761
-2.252977014653188 5.102269194974025 3.871260113836954
-2.261700212193838 5.129916032479025 9.814069428542954
-5.353447019455147 10.488871463258025 3.841954429642954
-5.362170216995797 10.516518300763025 9.784763744348954
0.864399380349692 10.478443790234024 3.850845205667954
0.855676182809041 10.506090627739026 9.793654520373954
-2.236070624452268 15.865046058518026 3.821539521473954
-2.244793821992918 15.892692896023025 9.764348836179954
-0.059795468998869 6.347952971993556 2.888144789503635
-0.068518666539519 6.375599809498556 8.830954104209635
-3.160265473800828 11.734555240277556 2.858839105309635
-3.168988671341478 11.762202077782558 8.801648420015635
3.057580926004010 11.724127567253557 2.867729881334635
3.048857728463359 11.751774404758557 8.810539196040635
-0.042889078797949 17.110729835537558 2.838424197140635
-0.051612276338599 17.138376673042558 8.781233511846635
0.860303646711527 7.964741187451218 4.862726180546602
0.851580449170877 7.992388024956218 10.805535495252602
-2.240166358090431 13.351343455735218 4.833420496352602
-2.248889555631082 13.378990293240218 10.776229811058602
3.977680041714406 13.340915782711217 4.842311272377602
3.968956844173756 13.368562620216219 10.785120587083602
0.877210036912447 18.727518050995219 4.813005588183602
0.868486839371797 18.755164888500218 10.755814902889602
-0.987034396025552 7.941993938213103 0.898546988891357
-0.995757593566202 7.969640775718103 6.841356303597357
-4.087504400827511 13.328596206497103 0.869241304697357
-4.096227598368161 13.356243044002102 6.812050619403357
2.130341998977327 13.318168533473102 0.878132080722357
2.121618801436677 13.345815370978103 6.820941395428357
-0.970128005824632 18.704770801757103 0.848826396528357
-0.978851203365282 18.732417639262103 6.791635711234357
