DMC-ICE13 ice VII; Cartesian 1x1x1 supercell
1.0
10.554869338533001 0.000005898004000 0.000000313332000
0.000003932080000 7.036477436385000 -0.000000175915000
0.000000017428000 -0.000000035754000 3.325532814296000
H O
24 12
Cartesian
0.552350346720244 0.552339351168732 0.577346404107816
4.070640126227725 0.552341317170065 0.577346508551816
7.588929905745762 0.552343283171399 0.577346612995816
0.552352312760244 4.070578069361232 0.577346316150316
4.070642092267725 4.070580035362565 0.577346420594316
7.588931871785762 4.070582001363898 0.577346525038316
2.965941428996549 2.965901460727974 0.577346279436568
6.484231208504030 2.965903426729307 0.577346383880568
10.002520988011513 2.965905392730640 0.577346488324568
2.965943395036549 6.484140178920474 0.577346191479068
6.484233174544030 6.484142144921807 0.577346295923068
10.002522954051514 6.484144110923141 0.577346400367068
2.311490540685414 1.206786688605175 2.240118098608086
5.829780320192897 1.206788654606509 2.240118203052086
9.348070099700378 1.206790620607842 2.240118307496086
2.311492506725414 4.725025406797675 2.240118010650586
5.829782286232898 4.725027372799008 2.240118115094586
9.348072065740379 4.725029338800342 2.240118219538586
1.206801496255551 2.311453636942653 2.240117461386742
4.725091275773588 2.311455602943986 2.240117565830742
8.243381055281070 2.311457568945319 2.240117670274742
1.206803462295551 5.829692355135152 2.240117373429242
4.725093241813588 5.829694321136485 2.240117477873242
8.243383021321069 5.829696287137819 2.240117582317242
10.554869149677547 0.000006049263219 3.301518801326324
3.518289590662582 0.000002117260552 3.301518592438323
7.036579370170064 0.000004083261886 3.301518696882324
10.554871115717546 3.518244767455719 3.301518713368824
3.518291556702582 3.518240835453052 3.301518504480824
7.036581336210064 3.518242801454385 3.301518608924824
1.759145795492718 1.759120308083110 1.638747659143995
5.277435575000200 1.759122274084444 1.638747763587995
8.795725354518236 1.759124240085777 1.638747868031995
1.759147761532718 5.277359026275611 1.638747571186495
5.277437541040200 5.277360992276944 1.638747675630495
8.795727320558235 5.277362958278277 1.638747780074495
