&GLOBAL
  PRINT_LEVEL LOW
  PROJECT hexamine_GFN1_k333_energy
  RUN_TYPE ENERGY
&END GLOBAL

&FORCE_EVAL
  METHOD Quickstep
  STRESS_TENSOR ANALYTICAL
  &DFT
    &QS
      EPS_DEFAULT 1.0E-12
      METHOD xTB
      &XTB
        GFN_TYPE TBLITE
        &TBLITE
          METHOD GFN1
          ACCURACY 0.1
        &END TBLITE
      &END XTB
    &END QS
    &KPOINTS
      SCHEME MACDONALD 3 3 3 0.0 0.0 0.0
      FULL_GRID T
    &END KPOINTS
    &SCF
      EPS_SCF 1.0E-9
      MAX_SCF 300
      SCF_GUESS MOPAC
      &MIXING
        METHOD DIRECT_P_MIXING
        ALPHA 0.2
      &END MIXING
    &END SCF
  &END DFT
  &SUBSYS
    &CELL
      PERIODIC XYZ
      A 5.988827686468 -0.000003378267 -0.000009366966
      B -1.996257337950 5.646335145053 -0.000009395541
      C -1.996260208207 -2.823130601032 4.889892749316
    &END CELL
    &COORD
      SCALED
      H   0.999999268000  0.243012857000  0.427114352000
      H   0.184099140000  0.756987039000  0.756987361000
      H   0.999999213000  0.427114285000  0.243012637000
      H   0.815895445000  0.572882584000  0.572882707000
      H   0.427113826000  0.999999067000  0.243012674000
      H   0.427113997000  0.243012667000  0.999999349000
      H   0.243012867000  0.999999318000  0.427114809000
      H   0.243012640000  0.427114665000  0.999999380000
      H   0.572882939000  0.815895873000  0.572883025000
      H   0.756987114000  0.184099614000  0.756987279000
      H   0.756987287000  0.756987502000  0.184099566000
      H   0.572883195000  0.572883348000  0.815895953000
      C   0.000000608000  0.244248913000  0.244248649000
      C   0.000009373000  0.755756390000  0.755756472000
      C   0.244249599000  0.000000451000  0.244248020000
      C   0.244249472000  0.244248038000  0.000000474000
      C   0.755755826000  0.000007968000  0.755755713000
      C   0.755755803000  0.755755827000  0.000007789000
      N   0.251178253000  0.251178635000  0.251178764000
      N   0.999996925000  0.748820112000  0.999997515000
      N   0.748820275000  0.999997509000  0.999997438000
      N   0.999996933000  0.999997337000  0.748820076000
    &END COORD
  &END SUBSYS
&END FORCE_EVAL
