DMC-ICE13 ice IX; Cartesian 1x1x1 supercell
1.0
6.784903000000000 0.000000000000000 0.000000000000000
0.000000000000000 6.784903000000000 0.000000000000000
0.000000000000000 0.000000000000000 6.807916000000000
H O
24 12
Cartesian
-0.046340887490000 2.306928084127000 1.294600114476000
0.773350028843000 1.115519472036000 1.928886840280000
2.098366950810000 2.512761686438000 0.723572544144000
1.085523415873000 3.346110612510000 2.996579114476000
2.276932027964000 4.165801528843000 3.630865840280000
0.879689813562000 5.490818450810000 2.425551544144000
5.699379584127000 3.438792387490000 -0.407378885524000
4.507970972036000 2.619101471157000 0.226907840280000
5.905213186438000 1.294084549190000 5.829509544144000
3.438792387490000 5.699379584127000 7.215294885523999
2.619101471157000 4.507970972036000 6.581008159720000
1.294084549190000 5.905213186438000 0.978406455856000
3.346110612510000 1.085523415873000 3.811336885524000
4.165801528843000 2.276932027964000 3.177050159720000
5.490818450810000 0.879689813562000 4.382364455855999
2.512761686438000 2.098366950810000 -0.723572544144000
4.477974915873000 6.831243887489999 2.109357885524000
5.669383527963999 6.011552971157000 1.475071159720000
4.272141313562000 4.686536049190000 2.680385455856000
6.831243887489999 4.477974915873000 4.698558114476000
6.011552971157000 5.669383527963999 5.332844840280000
4.686536049190000 4.272141313562000 4.127530544144000
2.306928084127000 -0.046340887490000 5.513315885523999
1.115519472036000 0.773350028843000 4.879029159720000
0.774076013464000 2.103523477090000 1.820205269256000
1.288928022910000 4.166527513464000 3.522184269256000
5.495974977090000 2.618375486536000 0.118219461340000
2.618375486536000 5.495974977090000 6.689689730744000
4.166527513464000 1.288928022910000 3.285731730744000
4.681379522909999 6.010826986536000 1.583752730744000
6.010826986536000 4.681379522909999 5.224163269256000
2.103523477090000 0.774076013464000 4.987710730743999
2.742837747168000 2.742837747168000 0.000000000000000
0.649613752832000 6.135289247167999 1.701979000000000
6.135289247167999 0.649613752832000 5.105937000000000
4.042065252832001 4.042065252832001 3.403958000000000
