&GLOBAL
  PRINT_LEVEL LOW
  PROJECT oxalic_acid_alpha_GXTB_gamma_energy
  RUN_TYPE ENERGY
&END GLOBAL

&FORCE_EVAL
  METHOD Quickstep
  STRESS_TENSOR ANALYTICAL
  &DFT
    &QS
      EPS_DEFAULT 1.0E-12
      METHOD xTB
      &XTB
        GFN_TYPE TBLITE
        SCC_MIXER TBLITE
        &TBLITE
          METHOD GXTB
          ACCURACY 0.1
        &END TBLITE
      &END XTB
    &END QS
    &SCF
      EPS_SCF 1.0E-9
      MAX_SCF 300
      SCF_GUESS MOPAC
      &MIXING
        METHOD DIRECT_P_MIXING
        ALPHA 0.2
      &END MIXING
    &END SCF
  &END DFT
  &SUBSYS
    &CELL
      CANONICALIZE TRUE
      PERIODIC XYZ
      A 6.548000000000 0.000000000000 0.000000000000
      B 0.000000000000 7.844000000000 0.000000000000
      C 0.000000000000 0.000000000000 6.086000000000
    &END CELL
    &COORD
      SCALED
      C   0.056980000000  0.055210000000  0.915590000000
      C   0.943020000000  0.944790000000  0.084410000000
      C   0.056980000000  0.555210000000  0.584410000000
      C   0.556980000000  0.444790000000  0.915590000000
      C   0.556980000000  0.944790000000  0.584410000000
      C   0.443020000000  0.055210000000  0.415590000000
      C   0.443020000000  0.555210000000  0.084410000000
      C   0.943020000000  0.444790000000  0.415590000000
      H   0.091000000000  0.277000000000  0.844000000000
      H   0.909000000000  0.723000000000  0.156000000000
      H   0.091000000000  0.777000000000  0.656000000000
      H   0.591000000000  0.223000000000  0.844000000000
      H   0.591000000000  0.723000000000  0.656000000000
      H   0.409000000000  0.277000000000  0.344000000000
      H   0.409000000000  0.777000000000  0.156000000000
      H   0.909000000000  0.223000000000  0.344000000000
      O   0.156130000000  0.994600000000  0.767760000000
      O   0.843870000000  0.005400000000  0.232240000000
      O   0.156130000000  0.494600000000  0.732240000000
      O   0.656130000000  0.505400000000  0.767760000000
      O   0.656130000000  0.005400000000  0.732240000000
      O   0.343870000000  0.994600000000  0.267760000000
      O   0.343870000000  0.494600000000  0.232240000000
      O   0.843870000000  0.505400000000  0.267760000000
      O   0.029090000000  0.216930000000  0.956720000000
      O   0.970910000000  0.783070000000  0.043280000000
      O   0.029090000000  0.716930000000  0.543280000000
      O   0.529090000000  0.283070000000  0.956720000000
      O   0.529090000000  0.783070000000  0.543280000000
      O   0.470910000000  0.216930000000  0.456720000000
      O   0.470910000000  0.716930000000  0.043280000000
      O   0.970910000000  0.283070000000  0.456720000000
    &END COORD
  &END SUBSYS
&END FORCE_EVAL
