&GLOBAL
  PRINT_LEVEL LOW
  PROJECT formamide_GXTB_k333_energy
  RUN_TYPE ENERGY
&END GLOBAL

&FORCE_EVAL
  METHOD Quickstep
  STRESS_TENSOR ANALYTICAL
  &DFT
    &QS
      EPS_DEFAULT 1.0E-12
      METHOD xTB
      &XTB
        GFN_TYPE TBLITE
        SCC_MIXER TBLITE
        &TBLITE
          METHOD GXTB
          ACCURACY 0.1
        &END TBLITE
      &END XTB
    &END QS
    &KPOINTS
      SCHEME MACDONALD 3 3 3 0.0 0.0 0.0
      EPS_SYMMETRY 1.0E-8
      SYMMETRY T
      FULL_GRID F
      SYMMETRY_BACKEND SPGLIB
      SYMMETRY_REDUCTION_METHOD SPGLIB
    &END KPOINTS
    &SCF
      EPS_SCF 1.0E-9
      MAX_SCF 300
      SCF_GUESS MOPAC
      &MIXING
        METHOD DIRECT_P_MIXING
        ALPHA 0.2
      &END MIXING
    &END SCF
  &END DFT
  &SUBSYS
    &CELL
      CANONICALIZE TRUE
      PERIODIC XYZ
      A 3.604000000000 0.000000000000 0.000000000000
      B 0.000000000000 9.041000000000 0.000000000000
      C -1.274555265292 0.000000000000 6.876884823502
    &END CELL
    &COORD
      SCALED
      O   0.471800000000  0.931300000000  0.248600000000
      O   0.528200000000  0.068700000000  0.751400000000
      O   0.971800000000  0.568700000000  0.748600000000
      O   0.028200000000  0.431300000000  0.251400000000
      N   0.299600000000  0.156600000000  0.119000000000
      N   0.700400000000  0.843400000000  0.881000000000
      N   0.799600000000  0.343400000000  0.619000000000
      N   0.200400000000  0.656600000000  0.381000000000
      C   0.335800000000  0.056500000000  0.258000000000
      C   0.664200000000  0.943500000000  0.742000000000
      C   0.835800000000  0.443500000000  0.758000000000
      C   0.164200000000  0.556500000000  0.242000000000
      H   0.211000000000  0.244000000000  0.140000000000
      H   0.789000000000  0.756000000000  0.860000000000
      H   0.711000000000  0.256000000000  0.640000000000
      H   0.289000000000  0.744000000000  0.360000000000
      H   0.367000000000  0.135000000000  0.006000000000
      H   0.633000000000  0.865000000000  0.994000000000
      H   0.867000000000  0.365000000000  0.506000000000
      H   0.133000000000  0.635000000000  0.494000000000
      H   0.242000000000  0.089000000000  0.378000000000
      H   0.758000000000  0.911000000000  0.622000000000
      H   0.742000000000  0.411000000000  0.878000000000
      H   0.258000000000  0.589000000000  0.122000000000
    &END COORD
  &END SUBSYS
&END FORCE_EVAL
