&GLOBAL
  PRINT_LEVEL LOW
  PROJECT ice_XI_GFN1_k222
  RUN_TYPE ENERGY
&END GLOBAL

&FORCE_EVAL
  METHOD Quickstep
  &DFT
    &QS
      EPS_DEFAULT 1.0E-12
      METHOD xTB
      &XTB
        GFN_TYPE TBLITE
        &TBLITE
          METHOD GFN1
          ACCURACY 0.1
        &END TBLITE
      &END XTB
    &END QS
    &KPOINTS
      SCHEME MACDONALD 2 2 2 0.25 0.25 0.25
      FULL_GRID T
    &END KPOINTS
    &SCF
      EPS_SCF 1.0E-9
      MAX_SCF 300
      SCF_GUESS MOPAC
      &MIXING
        METHOD DIRECT_P_MIXING
        ALPHA 0.2
      &END MIXING
      &PRINT
        &RESTART OFF
        &END RESTART
      &END PRINT
    &END SCF
  &END DFT
  &SUBSYS
    &CELL
      PERIODIC XYZ
      A 4.412173326207 0.000000000000 0.000000000000
      B 0.000000000000 7.663488094975 0.000124303247
      C 0.000000000000 0.000117021283 7.199592113007
    &END CELL
    &COORD
      SCALED
      H   0.000000000000  0.540722084567  0.019888574715
      H   0.000000000000  0.664316989883  0.199917918504
      H   0.000000000000  0.459279938283  0.519886517876
      H   0.000000000000  0.335676166660  0.699911105124
      H   0.499999084712  0.164317215611  0.199920855551
      H   0.499999084712  0.040725538270  0.019893381255
      H   0.499999084712  0.835669568862  0.699923754105
      H   0.499999084712  0.959274055735  0.519896823563
      H   0.318451335527  0.768113633624  0.983720482045
      H   0.681547520363  0.768113633624  0.983720482045
      H   0.318456800898  0.231886124600  0.483718860411
      H   0.681542283813  0.231886124600  0.483718860411
      H   0.181545121451  0.268115437610  0.983717124954
      H   0.818453734438  0.268115437610  0.983717124954
      H   0.181544470274  0.731889793969  0.483716157428
      H   0.818454385616  0.731889793969  0.483716157428
      O   0.000000000000  0.665693806587  0.060774251003
      O   0.000000000000  0.334305132668  0.560768152462
      O   0.499999084712  0.165695920442  0.060776028717
      O   0.499999084712  0.834298726590  0.560780605833
      O   0.499999084712  0.832890690266  0.936436799447
      O   0.499999084712  0.167121284062  0.436413532908
      O   0.999999084712  0.332886570085  0.936421672585
      O   0.999999084712  0.667121059629  0.436419645712
    &END COORD
  &END SUBSYS
&END FORCE_EVAL
