&GLOBAL
  PRINT_LEVEL LOW
  PROJECT ice_XIII_GXTB_k222
  RUN_TYPE ENERGY
&END GLOBAL

&FORCE_EVAL
  METHOD Quickstep
  &DFT
    &QS
      EPS_DEFAULT 1.0E-12
      METHOD xTB
      &XTB
        GFN_TYPE TBLITE
        &TBLITE
          METHOD GXTB
          ACCURACY 0.1
        &END TBLITE
        SCC_MIXER TBLITE
        &TBLITE_MIXER
          ITERATIONS 300
        &END TBLITE_MIXER
      &END XTB
    &END QS
    &KPOINTS
      SCHEME MACDONALD 2 2 2 0.25 0.25 0.25
      SYMMETRY F
      FULL_GRID T
    &END KPOINTS
    &SCF
      EPS_SCF 1.0E-9
      MAX_SCF 300
      SCF_GUESS MOPAC
      &MIXING
        METHOD DIRECT_P_MIXING
        ALPHA 0.2
      &END MIXING
      &PRINT
        &RESTART OFF
        &END RESTART
      &END PRINT
    &END SCF
  &END DFT
  &SUBSYS
    &CELL
      CANONICALIZE TRUE
      PERIODIC XYZ
      A 8.722397000000 0.000000000000 -3.120889000000
      B 0.000000000000 7.490364000000 0.000000000000
      C 0.000000000000 0.000000000000 10.321753000000
    &END CELL
    &COORD
      SCALED
      H   0.343387000000  0.643907000000  0.299505000000
      H   0.247703000000  0.492539000000  0.334329000000
      H   0.120821000000  0.715908000000  0.160650000000
      H   0.470767000000  0.910910000000  0.349910000000
      H   0.568880000000  0.749739000000  0.441398000000
      H  -0.039645000000  0.752824000000  0.050208000000
      H   0.231735000000  0.451168000000  0.095108000000
      H   0.313096000000  0.490157000000  0.578407000000
      H   0.178229000000  0.357201000000  0.516796000000
      H   0.297400000000  0.364343000000 -0.014623000000
      H   0.079729000000  0.014203000000  0.197862000000
      H   0.318488000000  0.138153000000  0.249231000000
      H   0.381158000000  0.048932000000  0.143419000000
      H   0.046139000000  0.205408000000  0.250764000000
      H   0.156613000000  0.143907000000  0.700495000000
      H   0.252297000000 -0.007461000000  0.665671000000
      H   0.379179000000  0.215908000000  0.839350000000
      H   0.029233000000  0.410910000000  0.650090000000
      H  -0.068880000000  0.249739000000  0.558602000000
      H   0.539645000000  0.252824000000  0.949792000000
      H   0.268265000000  0.951168000000  0.904892000000
      H   0.186904000000  0.990157000000  0.421593000000
      H   0.321771000000  0.857201000000  0.483204000000
      H   0.202600000000  0.864343000000  1.014623000000
      H   0.420271000000  0.514203000000  0.802138000000
      H   0.181512000000  0.638153000000  0.750769000000
      H   0.118842000000  0.548932000000  0.856581000000
      H   0.453861000000  0.705408000000  0.749236000000
      H   0.656613000000  0.356093000000  0.700495000000
      H   0.752297000000  0.507461000000  0.665671000000
      H   0.879179000000  0.284092000000  0.839350000000
      H   0.529233000000  0.089090000000  0.650090000000
      H   0.431120000000  0.250261000000  0.558602000000
      H   1.039645000000  0.247176000000  0.949792000000
      H   0.768265000000  0.548832000000  0.904892000000
      H   0.686904000000  0.509843000000  0.421593000000
      H   0.821772000000  0.642799000000  0.483204000000
      H   0.702600000000  0.635657000000  1.014623000000
      H   0.920271000000  0.985797000000  0.802138000000
      H   0.681512000000  0.861848000000  0.750769000000
      H   0.618842000000  0.951068000000  0.856581000000
      H   0.953861000000  0.794592000000  0.749236000000
      H   0.843387000000  0.856093000000  0.299505000000
      H   0.747703000000  1.007461000000  0.334329000000
      H   0.620821000000  0.784092000000  0.160650000000
      H   0.970767000000  0.589090000000  0.349910000000
      H   1.068880000000  0.750261000000  0.441398000000
      H   0.460355000000  0.747176000000  0.050207000000
      H   0.731735000000  0.048832000000  0.095108000000
      H   0.813096000000  0.009843000000  0.578407000000
      H   0.678228000000  0.142799000000  0.516796000000
      H   0.797400000000  0.135657000000 -0.014623000000
      H   0.579729000000  0.485797000000  0.197862000000
      H   0.818488000000  0.361848000000  0.249231000000
      H   0.881158000000  0.451068000000  0.143419000000
      H   0.546139000000  0.294592000000  0.250764000000
      O   0.257811000000  0.559406000000  0.254862000000
      O   0.464629000000  0.802016000000  0.402191000000
      O   0.060910000000  0.809898000000  0.096958000000
      O   0.272567000000  0.401401000000  0.502872000000
      O   0.201814000000  0.401827000000  0.000522000000
      O   0.416068000000  0.107545000000  0.235189000000
      O   0.124445000000  0.110153000000  0.265619000000
      O   0.242189000000  0.059406000000  0.745138000000
      O   0.035371000000  0.302016000000  0.597809000000
      O   0.439090000000  0.309898000000  0.903042000000
      O   0.227433000000  0.901400000000  0.497128000000
      O   0.298186000000  0.901827000000  0.999478000000
      O   0.083932000000  0.607545000000  0.764811000000
      O   0.375555000000  0.610153000000  0.734381000000
      O   0.742189000000  0.440594000000  0.745138000000
      O   0.535371000000  0.197984000000  0.597809000000
      O   0.939090000000  0.190102000000  0.903042000000
      O   0.727433000000  0.598599000000  0.497128000000
      O   0.798186000000  0.598173000000  0.999478000000
      O   0.583932000000  0.892455000000  0.764811000000
      O   0.875555000000  0.889847000000  0.734381000000
      O   0.757811000000  0.940594000000  0.254862000000
      O   0.964629000000  0.697984000000  0.402191000000
      O   0.560910000000  0.690102000000  0.096958000000
      O   0.772567000000  0.098599000000  0.502872000000
      O   0.701814000000  0.098173000000  0.000522000000
      O   0.916068000000  0.392455000000  0.235189000000
      O   0.624445000000  0.389847000000  0.265619000000
    &END COORD
  &END SUBSYS
&END FORCE_EVAL
