DMC-ICE13 ice VI; Cartesian 1x1x1 supercell
1.0
6.227032397455000 -0.016392787397000 0.004045418517000
-0.050959261829000 6.227818521324000 0.011953773463000
0.034161701797000 -0.019756844674000 5.826899309405000
H O
20 10
Cartesian
2.709738835266305 1.508480876386175 0.029839042788471
3.246712792519051 4.605428703867755 5.737281443867790
0.158730535734869 1.484656052799478 0.036790442036825
5.797809566714232 4.628953438010894 5.730216198466852
1.402838521519490 2.235886110487778 2.007602213737871
4.553372517605603 3.877932751781067 3.759492827588916
1.436350820898473 0.699055075446015 1.976812495214456
4.520030433781455 5.414792844236075 3.790238270054575
1.446651698405844 4.156029657033588 3.616444909370394
4.509854792907134 1.957735419740408 2.150581672247966
4.129690594437553 1.506498584463924 5.048162702138849
1.826846258859333 4.607239156511478 0.719106838146407
2.178617208608999 2.797799260219972 4.042816118344390
3.778013659390149 3.316061720057298 1.724272207132186
2.235410621462523 0.208788063395967 4.045686199092178
3.721133807164701 5.904959976980465 1.721284030420757
0.703991585329861 0.151939458024085 4.066786820830940
5.252550608603736 5.961880499544090 1.700192136374622
0.146084139533422 2.202311198329656 4.491877296465884
5.810373062700976 3.911369456477770 1.275143387377285
1.427690192875410 1.477843289576588 1.367285093198145
4.528371606986142 4.636001543295603 4.399764393954015
1.393044129354168 3.166246819741688 3.567575451347342
4.563567152028038 2.947511674784844 2.199479291926454
1.427140494925804 5.964298385677502 3.621947269262378
4.529375087887112 0.149560372724013 2.144955777043920
5.936768805064625 1.451826611797403 5.001805364989355
0.019624094240089 4.661937605073565 0.765262265523563
3.142100646097280 1.506507959810627 4.952131784533760
2.814433509020703 4.607206329932199 0.815033801684830
