DMC-ICE13 ice XV; Cartesian 4x4x4 supercell
1.0
25.033852000000000 0.000000000000000 0.004368000000000
0.035024000000000 25.080007999999999 -0.026268000000000
0.000000000000000 0.000000000000000 23.258431999999999
H O
1280 640
Cartesian
1.548649983714000 2.289773380390000 2.039897789643000
1.548649983714000 2.289773380390000 7.854505789643000
1.548649983714000 2.289773380390000 13.669113789642999
1.548649983714000 2.289773380390000 19.483721789642999
1.557405983714000 8.559775380390001 2.033330789643000
1.557405983714000 8.559775380390001 7.847938789642999
1.557405983714000 8.559775380390001 13.662546789642999
1.557405983714000 8.559775380390001 19.477154789642999
1.566161983714000 14.829777380389999 2.026763789643000
1.566161983714000 14.829777380389999 7.841371789643000
1.566161983714000 14.829777380389999 13.655979789642998
1.566161983714000 14.829777380389999 19.470587789642998
1.574917983714000 21.099779380390000 2.020196789643000
1.574917983714000 21.099779380390000 7.834804789643000
1.574917983714000 21.099779380390000 13.649412789643000
1.574917983714000 21.099779380390000 19.464020789642998
7.807112983714000 2.289773380390000 2.040989789643000
7.807112983714000 2.289773380390000 7.855597789642999
7.807112983714000 2.289773380390000 13.670205789642999
7.807112983714000 2.289773380390000 19.484813789642999
7.815868983714000 8.559775380390001 2.034422789643000
7.815868983714000 8.559775380390001 7.849030789643001
7.815868983714000 8.559775380390001 13.663638789642999
7.815868983714000 8.559775380390001 19.478246789642998
7.824624983714000 14.829777380389999 2.027855789643000
7.824624983714000 14.829777380389999 7.842463789643000
7.824624983714000 14.829777380389999 13.657071789643000
7.824624983714000 14.829777380389999 19.471679789642998
7.833380983714000 21.099779380390000 2.021288789643000
7.833380983714000 21.099779380390000 7.835896789643000
7.833380983714000 21.099779380390000 13.650504789643000
7.833380983714000 21.099779380390000 19.465112789642998
14.065575983714000 2.289773380390000 2.042081789643000
14.065575983714000 2.289773380390000 7.856689789642999
14.065575983714000 2.289773380390000 13.671297789642999
14.065575983714000 2.289773380390000 19.485905789642999
14.074331983714000 8.559775380390001 2.035514789643000
14.074331983714000 8.559775380390001 7.850122789643001
14.074331983714000 8.559775380390001 13.664730789642999
14.074331983714000 8.559775380390001 19.479338789642998
14.083087983714000 14.829777380389999 2.028947789643000
14.083087983714000 14.829777380389999 7.843555789643000
14.083087983714000 14.829777380389999 13.658163789643000
14.083087983714000 14.829777380389999 19.472771789642998
14.091843983714000 21.099779380390000 2.022380789643000
14.091843983714000 21.099779380390000 7.836988789643000
14.091843983714000 21.099779380390000 13.651596789642999
14.091843983714000 21.099779380390000 19.466204789642997
20.324038983714001 2.289773380390000 2.043173789643000
20.324038983714001 2.289773380390000 7.857781789642999
20.324038983714001 2.289773380390000 13.672389789642999
20.324038983714001 2.289773380390000 19.486997789642999
20.332794983714003 8.559775380390001 2.036606789643000
20.332794983714003 8.559775380390001 7.851214789643000
20.332794983714003 8.559775380390001 13.665822789642998
20.332794983714003 8.559775380390001 19.480430789642998
20.341550983714001 14.829777380389999 2.030039789643000
20.341550983714001 14.829777380389999 7.844647789643000
20.341550983714001 14.829777380389999 13.659255789643000
20.341550983714001 14.829777380389999 19.473863789642998
20.350306983714002 21.099779380390000 2.023472789643000
20.350306983714002 21.099779380390000 7.838080789643000
20.350306983714002 21.099779380390000 13.652688789642999
20.350306983714002 21.099779380390000 19.467296789642997
1.570347992956000 0.752538180044000 2.014933428086000
1.570347992956000 0.752538180044000 7.829541428085999
1.570347992956000 0.752538180044000 13.644149428085999
1.570347992956000 0.752538180044000 19.458757428085999
1.579103992956000 7.022540180043999 2.008366428086000
1.579103992956000 7.022540180043999 7.822974428085999
1.579103992956000 7.022540180043999 13.637582428085999
1.579103992956000 7.022540180043999 19.452190428085999
1.587859992956000 13.292542180044000 2.001799428086000
1.587859992956000 13.292542180044000 7.816407428086000
1.587859992956000 13.292542180044000 13.631015428085998
1.587859992956000 13.292542180044000 19.445623428085998
1.596615992956000 19.562544180044000 1.995232428086000
1.596615992956000 19.562544180044000 7.809840428086000
1.596615992956000 19.562544180044000 13.624448428086000
1.596615992956000 19.562544180044000 19.439056428085998
7.828810992956000 0.752538180044000 2.016025428086000
7.828810992956000 0.752538180044000 7.830633428085999
7.828810992956000 0.752538180044000 13.645241428085999
7.828810992956000 0.752538180044000 19.459849428085999
7.837566992956000 7.022540180043999 2.009458428086000
7.837566992956000 7.022540180043999 7.824066428086001
7.837566992956000 7.022540180043999 13.638674428085999
7.837566992956000 7.022540180043999 19.453282428085998
7.846322992956000 13.292542180044000 2.002891428086000
7.846322992956000 13.292542180044000 7.817499428086000
7.846322992956000 13.292542180044000 13.632107428086000
7.846322992956000 13.292542180044000 19.446715428085998
7.855078992956000 19.562544180044000 1.996324428086000
7.855078992956000 19.562544180044000 7.810932428086000
7.855078992956000 19.562544180044000 13.625540428086000
7.855078992956000 19.562544180044000 19.440148428085998
14.087273992956000 0.752538180044000 2.017117428086000
14.087273992956000 0.752538180044000 7.831725428085999
14.087273992956000 0.752538180044000 13.646333428085999
14.087273992956000 0.752538180044000 19.460941428085999
14.096029992956000 7.022540180043999 2.010550428086000
14.096029992956000 7.022540180043999 7.825158428086000
14.096029992956000 7.022540180043999 13.639766428085998
14.096029992956000 7.022540180043999 19.454374428085998
14.104785992956000 13.292542180044000 2.003983428086000
14.104785992956000 13.292542180044000 7.818591428086000
14.104785992956000 13.292542180044000 13.633199428086000
14.104785992956000 13.292542180044000 19.447807428085998
14.113541992956000 19.562544180044000 1.997416428086000
14.113541992956000 19.562544180044000 7.812024428086000
14.113541992956000 19.562544180044000 13.626632428085999
14.113541992956000 19.562544180044000 19.441240428085997
20.345736992955999 0.752538180044000 2.018209428086000
20.345736992955999 0.752538180044000 7.832817428085999
20.345736992955999 0.752538180044000 13.647425428085999
20.345736992955999 0.752538180044000 19.462033428085999
20.354492992956004 7.022540180043999 2.011642428086000
20.354492992956004 7.022540180043999 7.826250428086000
20.354492992956004 7.022540180043999 13.640858428085998
20.354492992956004 7.022540180043999 19.455466428085998
20.363248992956002 13.292542180044000 2.005075428086000
20.363248992956002 13.292542180044000 7.819683428086000
20.363248992956002 13.292542180044000 13.634291428086000
20.363248992956002 13.292542180044000 19.448899428085998
20.372004992956001 19.562544180044000 1.998508428086000
20.372004992956001 19.562544180044000 7.813116428085999
20.372004992956001 19.562544180044000 13.627724428085999
20.372004992956001 19.562544180044000 19.442332428085997
1.598591506910000 4.225084737714000 3.635332119153000
1.598591506910000 4.225084737714000 9.449940119153000
1.598591506910000 4.225084737714000 15.264548119153000
1.598591506910000 4.225084737714000 21.079156119152998
1.607347506910000 10.495086737714001 3.628765119153000
1.607347506910000 10.495086737714001 9.443373119153000
1.607347506910000 10.495086737714001 15.257981119152999
1.607347506910000 10.495086737714001 21.072589119152997
1.616103506910000 16.765088737713999 3.622198119153000
1.616103506910000 16.765088737713999 9.436806119152999
1.616103506910000 16.765088737713999 15.251414119152999
1.616103506910000 16.765088737713999 21.066022119152997
1.624859506910000 23.035090737714000 3.615631119153000
1.624859506910000 23.035090737714000 9.430239119152999
1.624859506910000 23.035090737714000 15.244847119153000
1.624859506910000 23.035090737714000 21.059455119152997
7.857054506910000 4.225084737714000 3.636424119153000
7.857054506910000 4.225084737714000 9.451032119153000
7.857054506910000 4.225084737714000 15.265640119153000
7.857054506910000 4.225084737714000 21.080248119152998
7.865810506910000 10.495086737714001 3.629857119153000
7.865810506910000 10.495086737714001 9.444465119153000
7.865810506910000 10.495086737714001 15.259073119152999
7.865810506910000 10.495086737714001 21.073681119152997
7.874566506910000 16.765088737713999 3.623290119153000
7.874566506910000 16.765088737713999 9.437898119152999
7.874566506910000 16.765088737713999 15.252506119153001
7.874566506910000 16.765088737713999 21.067114119152997
7.883322506910000 23.035090737714000 3.616723119153000
7.883322506910000 23.035090737714000 9.431331119153000
7.883322506910000 23.035090737714000 15.245939119153000
7.883322506910000 23.035090737714000 21.060547119152996
14.115517506909999 4.225084737714000 3.637516119153000
14.115517506909999 4.225084737714000 9.452124119153000
14.115517506909999 4.225084737714000 15.266732119153000
14.115517506909999 4.225084737714000 21.081340119152998
14.124273506910001 10.495086737714001 3.630949119153000
14.124273506910001 10.495086737714001 9.445557119152999
14.124273506910001 10.495086737714001 15.260165119152999
14.124273506910001 10.495086737714001 21.074773119152997
14.133029506909999 16.765088737713999 3.624382119153000
14.133029506909999 16.765088737713999 9.438990119152999
14.133029506909999 16.765088737713999 15.253598119153001
14.133029506909999 16.765088737713999 21.068206119152997
14.141785506910001 23.035090737714000 3.617815119153000
14.141785506910001 23.035090737714000 9.432423119153000
14.141785506910001 23.035090737714000 15.247031119153000
14.141785506910001 23.035090737714000 21.061639119152996
20.373980506910002 4.225084737714000 3.638608119153000
20.373980506910002 4.225084737714000 9.453216119153000
20.373980506910002 4.225084737714000 15.267824119153000
20.373980506910002 4.225084737714000 21.082432119152998
20.382736506910003 10.495086737714001 3.632041119153000
20.382736506910003 10.495086737714001 9.446649119152999
20.382736506910003 10.495086737714001 15.261257119152999
20.382736506910003 10.495086737714001 21.075865119152997
20.391492506910001 16.765088737713999 3.625474119153000
20.391492506910001 16.765088737713999 9.440082119152999
20.391492506910001 16.765088737713999 15.254690119153000
20.391492506910001 16.765088737713999 21.069298119152997
20.400248506910003 23.035090737714000 3.618907119153000
20.400248506910003 23.035090737714000 9.433515119153000
20.400248506910003 23.035090737714000 15.248123119153000
20.400248506910003 23.035090737714000 21.062731119152996
4.258092865206000 1.575620152590000 5.074489214719000
4.258092865206000 1.575620152590000 10.889097214718999
4.258092865206000 1.575620152590000 16.703705214719001
4.258092865206000 1.575620152590000 22.518313214719001
4.266848865206000 7.845622152590000 5.067922214718999
4.266848865206000 7.845622152590000 10.882530214718999
4.266848865206000 7.845622152590000 16.697138214718997
4.266848865206000 7.845622152590000 22.511746214718997
4.275604865206000 14.115624152590000 5.061355214719000
4.275604865206000 14.115624152590000 10.875963214719000
4.275604865206000 14.115624152590000 16.690571214719000
4.275604865206000 14.115624152590000 22.505179214719000
4.284360865206000 20.385626152590000 5.054788214718999
4.284360865206000 20.385626152590000 10.869396214719000
4.284360865206000 20.385626152590000 16.684004214719000
4.284360865206000 20.385626152590000 22.498612214718996
10.516555865206000 1.575620152590000 5.075581214719000
10.516555865206000 1.575620152590000 10.890189214718999
10.516555865206000 1.575620152590000 16.704797214719001
10.516555865206000 1.575620152590000 22.519405214719001
10.525311865206000 7.845622152590000 5.069014214719000
10.525311865206000 7.845622152590000 10.883622214719001
10.525311865206000 7.845622152590000 16.698230214718997
10.525311865206000 7.845622152590000 22.512838214718997
10.534067865206000 14.115624152590000 5.062447214719000
10.534067865206000 14.115624152590000 10.877055214719000
10.534067865206000 14.115624152590000 16.691663214719000
10.534067865206000 14.115624152590000 22.506271214719000
10.542823865206000 20.385626152590000 5.055880214719000
10.542823865206000 20.385626152590000 10.870488214719000
10.542823865206000 20.385626152590000 16.685096214719000
10.542823865206000 20.385626152590000 22.499704214718996
16.775018865206000 1.575620152590000 5.076673214718999
16.775018865206000 1.575620152590000 10.891281214718999
16.775018865206000 1.575620152590000 16.705889214719001
16.775018865206000 1.575620152590000 22.520497214719001
16.783774865205999 7.845622152590000 5.070106214719000
16.783774865205999 7.845622152590000 10.884714214719001
16.783774865205999 7.845622152590000 16.699322214718997
16.783774865205999 7.845622152590000 22.513930214718997
16.792530865206000 14.115624152590000 5.063539214718999
16.792530865206000 14.115624152590000 10.878147214719000
16.792530865206000 14.115624152590000 16.692755214719000
16.792530865206000 14.115624152590000 22.507363214719000
16.801286865205999 20.385626152590000 5.056972214719000
16.801286865205999 20.385626152590000 10.871580214719000
16.801286865205999 20.385626152590000 16.686188214718999
16.801286865205999 20.385626152590000 22.500796214718996
23.033481865205999 1.575620152590000 5.077765214718999
23.033481865205999 1.575620152590000 10.892373214718999
23.033481865205999 1.575620152590000 16.706981214719001
23.033481865205999 1.575620152590000 22.521589214719000
23.042237865206001 7.845622152590000 5.071198214719000
23.042237865206001 7.845622152590000 10.885806214719000
23.042237865206001 7.845622152590000 16.700414214718997
23.042237865206001 7.845622152590000 22.515022214718996
23.050993865205999 14.115624152590000 5.064631214718999
23.050993865205999 14.115624152590000 10.879239214719000
23.050993865205999 14.115624152590000 16.693847214719000
23.050993865205999 14.115624152590000 22.508455214719000
23.059749865206001 20.385626152590000 5.058064214719000
23.059749865206001 20.385626152590000 10.872672214719000
23.059749865206001 20.385626152590000 16.687280214718999
23.059749865206001 20.385626152590000 22.501888214718996
2.312588064657000 2.862550603094000 4.069647936327000
2.312588064657000 2.862550603094000 9.884255936327000
2.312588064657000 2.862550603094000 15.698863936326999
2.312588064657000 2.862550603094000 21.513471936327001
2.321344064657000 9.132552603094000 4.063080936326999
2.321344064657000 9.132552603094000 9.877688936326999
2.321344064657000 9.132552603094000 15.692296936326999
2.321344064657000 9.132552603094000 21.506904936326997
2.330100064657000 15.402554603094000 4.056513936327000
2.330100064657000 15.402554603094000 9.871121936327000
2.330100064657000 15.402554603094000 15.685729936326998
2.330100064657000 15.402554603094000 21.500337936327000
2.338856064657000 21.672556603094002 4.049946936326999
2.338856064657000 21.672556603094002 9.864554936327000
2.338856064657000 21.672556603094002 15.679162936327000
2.338856064657000 21.672556603094002 21.493770936326996
8.571051064657000 2.862550603094000 4.070739936327000
8.571051064657000 2.862550603094000 9.885347936326999
8.571051064657000 2.862550603094000 15.699955936326999
8.571051064657000 2.862550603094000 21.514563936327001
8.579807064657000 9.132552603094000 4.064172936327000
8.579807064657000 9.132552603094000 9.878780936327001
8.579807064657000 9.132552603094000 15.693388936326999
8.579807064657000 9.132552603094000 21.507996936326997
8.588563064657000 15.402554603094000 4.057605936327000
8.588563064657000 15.402554603094000 9.872213936327000
8.588563064657000 15.402554603094000 15.686821936327000
8.588563064657000 15.402554603094000 21.501429936327000
8.597319064657000 21.672556603094002 4.051038936327000
8.597319064657000 21.672556603094002 9.865646936327000
8.597319064657000 21.672556603094002 15.680254936327000
8.597319064657000 21.672556603094002 21.494862936326996
14.829514064656999 2.862550603094000 4.071831936326999
14.829514064656999 2.862550603094000 9.886439936326999
14.829514064656999 2.862550603094000 15.701047936326999
14.829514064656999 2.862550603094000 21.515655936327001
14.838270064656999 9.132552603094000 4.065264936327000
14.838270064656999 9.132552603094000 9.879872936327001
14.838270064656999 9.132552603094000 15.694480936326999
14.838270064656999 9.132552603094000 21.509088936326997
14.847026064656999 15.402554603094000 4.058697936326999
14.847026064656999 15.402554603094000 9.873305936327000
14.847026064656999 15.402554603094000 15.687913936327000
14.847026064656999 15.402554603094000 21.502521936327000
14.855782064656999 21.672556603094002 4.052130936327000
14.855782064656999 21.672556603094002 9.866738936327000
14.855782064656999 21.672556603094002 15.681346936326999
14.855782064656999 21.672556603094002 21.495954936326996
21.087977064657000 2.862550603094000 4.072923936326999
21.087977064657000 2.862550603094000 9.887531936326999
21.087977064657000 2.862550603094000 15.702139936326999
21.087977064657000 2.862550603094000 21.516747936327000
21.096733064657002 9.132552603094000 4.066356936327000
21.096733064657002 9.132552603094000 9.880964936327000
21.096733064657002 9.132552603094000 15.695572936326998
21.096733064657002 9.132552603094000 21.510180936326996
21.105489064657000 15.402554603094000 4.059789936326999
21.105489064657000 15.402554603094000 9.874397936327000
21.105489064657000 15.402554603094000 15.689005936327000
21.105489064657000 15.402554603094000 21.503613936327000
21.114245064657002 21.672556603094002 4.053222936327000
21.114245064657002 21.672556603094002 9.867830936327000
21.114245064657002 21.672556603094002 15.682438936326999
21.114245064657002 21.672556603094002 21.497046936326996
2.359427728829000 6.520457229889999 4.072342218685000
2.359427728829000 6.520457229889999 9.886950218685000
2.359427728829000 6.520457229889999 15.701558218684999
2.359427728829000 6.520457229889999 21.516166218685001
2.368183728829000 12.790459229889999 4.065775218684999
2.368183728829000 12.790459229889999 9.880383218684999
2.368183728829000 12.790459229889999 15.694991218684999
2.368183728829000 12.790459229889999 21.509599218684997
2.376939728829000 19.060461229889999 4.059208218685000
2.376939728829000 19.060461229889999 9.873816218685000
2.376939728829000 19.060461229889999 15.688424218684998
2.376939728829000 19.060461229889999 21.503032218685000
2.385695728829000 25.330463229890000 4.052641218684999
2.385695728829000 25.330463229890000 9.867249218685000
2.385695728829000 25.330463229890000 15.681857218685000
2.385695728829000 25.330463229890000 21.496465218684996
8.617890728829000 6.520457229889999 4.073434218685000
8.617890728829000 6.520457229889999 9.888042218684999
8.617890728829000 6.520457229889999 15.702650218684999
8.617890728829000 6.520457229889999 21.517258218685001
8.626646728829000 12.790459229889999 4.066867218685000
8.626646728829000 12.790459229889999 9.881475218685001
8.626646728829000 12.790459229889999 15.696083218684999
8.626646728829000 12.790459229889999 21.510691218684997
8.635402728829000 19.060461229889999 4.060300218685000
8.635402728829000 19.060461229889999 9.874908218685000
8.635402728829000 19.060461229889999 15.689516218685000
8.635402728829000 19.060461229889999 21.504124218685000
8.644158728829000 25.330463229890000 4.053733218685000
8.644158728829000 25.330463229890000 9.868341218685000
8.644158728829000 25.330463229890000 15.682949218685000
8.644158728829000 25.330463229890000 21.497557218684996
14.876353728828999 6.520457229889999 4.074526218685000
14.876353728828999 6.520457229889999 9.889134218684999
14.876353728828999 6.520457229889999 15.703742218684999
14.876353728828999 6.520457229889999 21.518350218685001
14.885109728829001 12.790459229889999 4.067959218685000
14.885109728829001 12.790459229889999 9.882567218685001
14.885109728829001 12.790459229889999 15.697175218684999
14.885109728829001 12.790459229889999 21.511783218684997
14.893865728828999 19.060461229889999 4.061392218685000
14.893865728828999 19.060461229889999 9.876000218685000
14.893865728828999 19.060461229889999 15.690608218685000
14.893865728828999 19.060461229889999 21.505216218685000
14.902621728829001 25.330463229890000 4.054825218685000
14.902621728829001 25.330463229890000 9.869433218685000
14.902621728829001 25.330463229890000 15.684041218685000
14.902621728829001 25.330463229890000 21.498649218684996
21.134816728829001 6.520457229889999 4.075618218684999
21.134816728829001 6.520457229889999 9.890226218684999
21.134816728829001 6.520457229889999 15.704834218684999
21.134816728829001 6.520457229889999 21.519442218685001
21.143572728829003 12.790459229889999 4.069051218685000
21.143572728829003 12.790459229889999 9.883659218685001
21.143572728829003 12.790459229889999 15.698267218684999
21.143572728829003 12.790459229889999 21.512875218684997
21.152328728829001 19.060461229889999 4.062484218684999
21.152328728829001 19.060461229889999 9.877092218685000
21.152328728829001 19.060461229889999 15.691700218685000
21.152328728829001 19.060461229889999 21.506308218685000
21.161084728829003 25.330463229890000 4.055917218685000
21.161084728829003 25.330463229890000 9.870525218685000
21.161084728829003 25.330463229890000 15.685133218684999
21.161084728829003 25.330463229890000 21.499741218684996
0.828187406423000 6.479438876806000 4.092666838135000
0.828187406423000 6.479438876806000 9.907274838134999
0.828187406423000 6.479438876806000 15.721882838134999
0.828187406423000 6.479438876806000 21.536490838134998
0.836943406423000 12.749440876806000 4.086099838135000
0.836943406423000 12.749440876806000 9.900707838134998
0.836943406423000 12.749440876806000 15.715315838134998
0.836943406423000 12.749440876806000 21.529923838134998
0.845699406423000 19.019442876806000 4.079532838135000
0.845699406423000 19.019442876806000 9.894140838135000
0.845699406423000 19.019442876806000 15.708748838134998
0.845699406423000 19.019442876806000 21.523356838134998
0.854455406423000 25.289444876806002 4.072965838135000
0.854455406423000 25.289444876806002 9.887573838134999
0.854455406423000 25.289444876806002 15.702181838135001
0.854455406423000 25.289444876806002 21.516789838134997
7.086650406423000 6.479438876806000 4.093758838135000
7.086650406423000 6.479438876806000 9.908366838134999
7.086650406423000 6.479438876806000 15.722974838134999
7.086650406423000 6.479438876806000 21.537582838134998
7.095406406423000 12.749440876806000 4.087191838135000
7.095406406423000 12.749440876806000 9.901799838135000
7.095406406423000 12.749440876806000 15.716407838134998
7.095406406423000 12.749440876806000 21.531015838134998
7.104162406423000 19.019442876806000 4.080624838135000
7.104162406423000 19.019442876806000 9.895232838135000
7.104162406423000 19.019442876806000 15.709840838135001
7.104162406423000 19.019442876806000 21.524448838134997
7.112918406423000 25.289444876806002 4.074057838135000
7.112918406423000 25.289444876806002 9.888665838135001
7.112918406423000 25.289444876806002 15.703273838135001
7.112918406423000 25.289444876806002 21.517881838134997
13.345113406423000 6.479438876806000 4.094850838135000
13.345113406423000 6.479438876806000 9.909458838134999
13.345113406423000 6.479438876806000 15.724066838134998
13.345113406423000 6.479438876806000 21.538674838134998
13.353869406423000 12.749440876806000 4.088283838135000
13.353869406423000 12.749440876806000 9.902891838135000
13.353869406423000 12.749440876806000 15.717499838134998
13.353869406423000 12.749440876806000 21.532107838134998
13.362625406423000 19.019442876806000 4.081716838135000
13.362625406423000 19.019442876806000 9.896324838135000
13.362625406423000 19.019442876806000 15.710932838135001
13.362625406423000 19.019442876806000 21.525540838134997
13.371381406423000 25.289444876806002 4.075149838135000
13.371381406423000 25.289444876806002 9.889757838135001
13.371381406423000 25.289444876806002 15.704365838135001
13.371381406423000 25.289444876806002 21.518973838134997
19.603576406423002 6.479438876806000 4.095942838135000
19.603576406423002 6.479438876806000 9.910550838134998
19.603576406423002 6.479438876806000 15.725158838134998
19.603576406423002 6.479438876806000 21.539766838134998
19.612332406423004 12.749440876806000 4.089375838135000
19.612332406423004 12.749440876806000 9.903983838135000
19.612332406423004 12.749440876806000 15.718591838134998
19.612332406423004 12.749440876806000 21.533199838134998
19.621088406423002 19.019442876806000 4.082808838135000
19.621088406423002 19.019442876806000 9.897416838134999
19.621088406423002 19.019442876806000 15.712024838135001
19.621088406423002 19.019442876806000 21.526632838134997
19.629844406423004 25.289444876806002 4.076241838135000
19.629844406423004 25.289444876806002 9.890849838135001
19.629844406423004 25.289444876806002 15.705457838135001
19.629844406423004 25.289444876806002 21.520065838134997
6.516002839667000 2.266116662844000 4.516422611666000
6.516002839667000 2.266116662844000 10.331030611666000
6.516002839667000 2.266116662844000 16.145638611666001
6.516002839667000 2.266116662844000 21.960246611666001
6.524758839667000 8.536118662844000 4.509855611666000
6.524758839667000 8.536118662844000 10.324463611665999
6.524758839667000 8.536118662844000 16.139071611665997
6.524758839667000 8.536118662844000 21.953679611665997
6.533514839667000 14.806120662844000 4.503288611666000
6.533514839667000 14.806120662844000 10.317896611666001
6.533514839667000 14.806120662844000 16.132504611666000
6.533514839667000 14.806120662844000 21.947112611666000
6.542270839667000 21.076122662844000 4.496721611666000
6.542270839667000 21.076122662844000 10.311329611666000
6.542270839667000 21.076122662844000 16.125937611666000
6.542270839667000 21.076122662844000 21.940545611665996
12.774465839667000 2.266116662844000 4.517514611666000
12.774465839667000 2.266116662844000 10.332122611666000
12.774465839667000 2.266116662844000 16.146730611666001
12.774465839667000 2.266116662844000 21.961338611666001
12.783221839667000 8.536118662844000 4.510947611666000
12.783221839667000 8.536118662844000 10.325555611666001
12.783221839667000 8.536118662844000 16.140163611665997
12.783221839667000 8.536118662844000 21.954771611665997
12.791977839667000 14.806120662844000 4.504380611666000
12.791977839667000 14.806120662844000 10.318988611666001
12.791977839667000 14.806120662844000 16.133596611666000
12.791977839667000 14.806120662844000 21.948204611666000
12.800733839667000 21.076122662844000 4.497813611666000
12.800733839667000 21.076122662844000 10.312421611666000
12.800733839667000 21.076122662844000 16.127029611666000
12.800733839667000 21.076122662844000 21.941637611665996
19.032928839667001 2.266116662844000 4.518606611666000
19.032928839667001 2.266116662844000 10.333214611666000
19.032928839667001 2.266116662844000 16.147822611666001
19.032928839667001 2.266116662844000 21.962430611666001
19.041684839666999 8.536118662844000 4.512039611666000
19.041684839666999 8.536118662844000 10.326647611666001
19.041684839666999 8.536118662844000 16.141255611665997
19.041684839666999 8.536118662844000 21.955863611665997
19.050440839667001 14.806120662844000 4.505472611666000
19.050440839667001 14.806120662844000 10.320080611666000
19.050440839667001 14.806120662844000 16.134688611666000
19.050440839667001 14.806120662844000 21.949296611666000
19.059196839666999 21.076122662844000 4.498905611666000
19.059196839666999 21.076122662844000 10.313513611666000
19.059196839666999 21.076122662844000 16.128121611666000
19.059196839666999 21.076122662844000 21.942729611665996
25.291391839667000 2.266116662844000 4.519698611666000
25.291391839667000 2.266116662844000 10.334306611665999
25.291391839667000 2.266116662844000 16.148914611666001
25.291391839667000 2.266116662844000 21.963522611666001
25.300147839667002 8.536118662844000 4.513131611666000
25.300147839667002 8.536118662844000 10.327739611666001
25.300147839667002 8.536118662844000 16.142347611665997
25.300147839667002 8.536118662844000 21.956955611665997
25.308903839667000 14.806120662844000 4.506564611666000
25.308903839667000 14.806120662844000 10.321172611666000
25.308903839667000 14.806120662844000 16.135780611666000
25.308903839667000 14.806120662844000 21.950388611666000
25.317659839667002 21.076122662844000 4.499997611666000
25.317659839667002 21.076122662844000 10.314605611666000
25.317659839667002 21.076122662844000 16.129213611666000
25.317659839667002 21.076122662844000 21.943821611665996
2.873979380036000 1.554596835884000 5.881994374806000
2.873979380036000 1.554596835884000 11.696602374806000
2.873979380036000 1.554596835884000 17.511210374805998
2.873979380036000 1.554596835884000 23.325818374805998
2.882735380036000 7.824598835884000 5.875427374806000
2.882735380036000 7.824598835884000 11.690035374806000
2.882735380036000 7.824598835884000 17.504643374806001
2.882735380036000 7.824598835884000 23.319251374806001
2.891491380036000 14.094600835884000 5.868860374806000
2.891491380036000 14.094600835884000 11.683468374806001
2.891491380036000 14.094600835884000 17.498076374805997
2.891491380036000 14.094600835884000 23.312684374805997
2.900247380036000 20.364602835884000 5.862293374806000
2.900247380036000 20.364602835884000 11.676901374806000
2.900247380036000 20.364602835884000 17.491509374806000
2.900247380036000 20.364602835884000 23.306117374806000
9.132442380036000 1.554596835884000 5.883086374806000
9.132442380036000 1.554596835884000 11.697694374806000
9.132442380036000 1.554596835884000 17.512302374805998
9.132442380036000 1.554596835884000 23.326910374805998
9.141198380036000 7.824598835884000 5.876519374806001
9.141198380036000 7.824598835884000 11.691127374806001