DMC-ICE13 ice III; Cartesian 4x4x4 supercell
1.0
26.627843642396002 -0.021663943372000 -0.008251846508000
-0.022262455252000 26.236351325375999 -0.168680673344000
0.003312212492000 -0.177629349584000 29.808107524280000
H O
1536 768
Cartesian
1.607156918922136 2.270449264150240 1.338872930386932
1.607984972045136 2.226041926754240 8.790899811456931
1.608813025168136 2.181634589358240 16.242926692526932
1.609641078291136 2.137227251962240 23.694953573596930
1.601591305109136 8.829537095494240 1.296702762050932
1.602419358232136 8.785129758098240 8.748729643120932
1.603247411355136 8.740722420702239 16.200756524190933
1.604075464478136 8.696315083306240 23.652783405260930
1.596025691296136 15.388624926838240 1.254532593714932
1.596853744419136 15.344217589442239 8.706559474784932
1.597681797542136 15.299810252046241 16.158586355854933
1.598509850665136 15.255402914650240 23.610613236924930
1.590460077483136 21.947712758182238 1.212362425378932
1.591288130606136 21.903305420786239 8.664389306448932
1.592116183729136 21.858898083390237 16.116416187518933
1.592944236852136 21.814490745994238 23.568443068588930
8.264117829521137 2.265033278307240 1.336809968759932
8.264945882644136 2.220625940911240 8.788836849829933
8.265773935767136 2.176218603515240 16.240863730899932
8.266601988890136 2.131811266119240 23.692890611969929
8.258552215708136 8.824121109651239 1.294639800423932
8.259380268831137 8.779713772255240 8.746666681493933
8.260208321954137 8.735306434859240 16.198693562563932
8.261036375077136 8.690899097463239 23.650720443633929
8.252986601895136 15.383208940995241 1.252469632087932
8.253814655018136 15.338801603599240 8.704496513157931
8.254642708141136 15.294394266203239 16.156523394227932
8.255470761264137 15.249986928807241 23.608550275297929
8.247420988082137 21.942296772339237 1.210299463751932
8.248249041205137 21.897889434943238 8.662326344821931
8.249077094328136 21.853482097547239 16.114353225891932
8.249905147451136 21.809074760151237 23.566380106961930
14.921078740120137 2.259617292464240 1.334747007132932
14.921906793243137 2.215209955068240 8.786773888202932
14.922734846366136 2.170802617672240 16.238800769272931
14.923562899489138 2.126395280276240 23.690827650342928
14.915513126307138 8.818705123808240 1.292576838796932
14.916341179430137 8.774297786412239 8.744603719866932
14.917169232553137 8.729890449016240 16.196630600936931
14.917997285676137 8.685483111620240 23.648657482006929
14.909947512494137 15.377792955152239 1.250406670460932
14.910775565617138 15.333385617756241 8.702433551530932
14.911603618740138 15.288978280360240 16.154460432600931
14.912431671863137 15.244570942964240 23.606487313670929
14.904381898681137 21.936880786496239 1.208236502124932
14.905209951804137 21.892473449100237 8.660263383194932
14.906038004927137 21.848066111704238 16.112290264264931
14.906866058050138 21.803658774308239 23.564317145334929
21.578039650719138 2.254201306621240 1.332684045505932
21.578867703842139 2.209793969225240 8.784710926575931
21.579695756965137 2.165386631829240 16.236737807645930
21.580523810088138 2.120979294433240 23.688764688715931
21.572474036906137 8.813289137965240 1.290513877169932
21.573302090029138 8.768881800569240 8.742540758239931
21.574130143152139 8.724474463173239 16.194567639309930
21.574958196275137 8.680067125777240 23.646594520379931
21.566908423093139 15.372376969309240 1.248343708833932
21.567736476216137 15.327969631913239 8.700370589903931
21.568564529339138 15.283562294517241 16.152397470973931
21.569392582462136 15.239154957121240 23.604424352043932
21.561342809280138 21.931464800653238 1.206173540497932
21.562170862403139 21.887057463257239 8.658200421567932
21.562998915526137 21.842650125861237 16.110227302637931
21.563826968649138 21.798242788465238 23.562254183707928
5.028886222129423 4.281665330357190 5.033918413229319
5.029714275252423 4.237257992961190 12.485945294299320
5.030542328375423 4.192850655565190 19.937972175369318
5.031370381498423 4.148443318169190 27.389999056439319
5.023320608316423 10.840753161701191 4.991748244893319
5.024148661439424 10.796345824305190 12.443775125963320
5.024976714562423 10.751938486909189 19.895802007033318
5.025804767685424 10.707531149513191 27.347828888103319
5.017754994503424 17.399840993045188 4.949578076557319
5.018583047626423 17.355433655649190 12.401604957627320
5.019411100749423 17.311026318253191 19.853631838697318
5.020239153872423 17.266618980857189 27.305658719767319
5.012189380690423 23.958928824389186 4.907407908221320
5.013017433813423 23.914521486993188 12.359434789291319
5.013845486936424 23.870114149597185 19.811461670361318
5.014673540059423 23.825706812201187 27.263488551431319
11.685847132728423 4.276249344514190 5.031855451602319
11.686675185851424 4.231842007118190 12.483882332672319
11.687503238974424 4.187434669722190 19.935909213742320
11.688331292097423 4.143027332326190 27.387936094812318
11.680281518915423 10.835337175858189 4.989685283266319
11.681109572038423 10.790929838462191 12.441712164336320
11.681937625161424 10.746522501066190 19.893739045406321
11.682765678284424 10.702115163670189 27.345765926476318
11.674715905102424 17.394425007202191 4.947515114930319
11.675543958225424 17.350017669806189 12.399541996000320
11.676372011348423 17.305610332410190 19.851568877070321
11.677200064471425 17.261202995014191 27.303595758140318
11.669150291289423 23.953512838546185 4.905344946594319
11.669978344412424 23.909105501150187 12.357371827664320
11.670806397535424 23.864698163754188 19.809398708734321
11.671634450658424 23.820290826358185 27.261425589804318
18.342808043327423 4.270833358671190 5.029792489975319
18.343636096450425 4.226426021275190 12.481819371045319
18.344464149573422 4.182018683879190 19.933846252115320
18.345292202696424 4.137611346483190 27.385873133185317
18.337242429514426 10.829921190015190 4.987622321639319
18.338070482637423 10.785513852619189 12.439649202709319
18.338898535760425 10.741106515223191 19.891676083779320
18.339726588883423 10.696699177827190 27.343702964849317
18.331676815701424 17.389009021359190 4.945452153303319
18.332504868824426 17.344601683963191 12.397479034373319
18.333332921947424 17.300194346567189 19.849505915443320
18.334160975070425 17.255787009171190 27.301532796513317
18.326111201888423 23.948096852703188 4.903281984967319
18.326939255011425 23.903689515307185 12.355308866037319
18.327767308134423 23.859282177911187 19.807335747107320
18.328595361257424 23.814874840515188 27.259362628177318
24.999768953926424 4.265417372828190 5.027729528348319
25.000597007049425 4.221010035432190 12.479756409418318
25.001425060172423 4.176602698036190 19.931783290488319
25.002253113295424 4.132195360640190 27.383810171558320
24.994203340113422 10.824505204172191 4.985559360012319
24.995031393236424 10.780097866776190 12.437586241082318
24.995859446359425 10.735690529380189 19.889613122152319
24.996687499482423 10.691283191984191 27.341640003222320
24.988637726300425 17.383593035516189 4.943389191676319
24.989465779423423 17.339185698120190 12.395416072746318
24.990293832546424 17.294778360724191 19.847442953816319
24.991121885669422 17.250371023328189 27.299469834886320
24.983072112487424 23.942680866860186 4.901219023340319
24.983900165610425 23.898273529464188 12.353245904410318
24.984728218733423 23.853866192068185 19.805272785480319
24.985556271856424 23.809458854672187 27.257299666550317
0.952210944035193 4.872580755154523 3.135141539668227
0.953038997158193 4.828173417758523 10.587168420738227
0.953867050281193 4.783766080362523 18.039195301808228
0.954695103404193 4.739358742966523 25.491222182878225
0.946645330222193 11.431668586498523 3.092971371332227
0.947473383345193 11.387261249102522 10.544998252402227
0.948301436468193 11.342853911706523 17.997025133472228
0.949129489591193 11.298446574310523 25.449052014542225
0.941079716409193 17.990756417842523 3.050801202996227
0.941907769532193 17.946349080446524 10.502828084066227
0.942735822655193 17.901941743050521 17.954854965136228
0.943563875778193 17.857534405654523 25.406881846206225
0.935514102596193 24.549844249186521 3.008631034660227
0.936342155719193 24.505436911790522 10.460657915730227
0.937170208842193 24.461029574394519 17.912684796800228
0.937998261965193 24.416622236998521 25.364711677870226
7.609171854634194 4.867164769311523 3.133078578041227
7.609999907757193 4.822757431915523 10.585105459111228
7.610827960880194 4.778350094519523 18.037132340181227
7.611656014003193 4.733942757123523 25.489159221251224
7.603606240821193 11.426252600655523 3.090908409705227
7.604434293944194 11.381845263259523 10.542935290775228
7.605262347067193 11.337437925863522 17.994962171845227
7.606090400190194 11.293030588467524 25.446989052915225
7.598040627008194 17.985340431999525 3.048738241369227
7.598868680131194 17.940933094603523 10.500765122439226
7.599696733254193 17.896525757207520 17.952792003509227
7.600524786377194 17.852118419811525 25.404818884579225
7.592475013195194 24.544428263343519 3.006568073033227
7.593303066318193 24.500020925947521 10.458594954103226
7.594131119441194 24.455613588551522 17.910621835173227
7.594959172564193 24.411206251155519 25.362648716243225
14.266132765233193 4.861748783468523 3.131015616414227
14.266960818356193 4.817341446072523 10.583042497484227
14.267788871479192 4.772934108676523 18.035069378554226
14.268616924602194 4.728526771280523 25.487096259624224
14.260567151420194 11.420836614812522 3.088845448078227
14.261395204543193 11.376429277416523 10.540872329148227
14.262223257666193 11.332021940020523 17.992899210218226
14.263051310789193 11.287614602624522 25.444926091288224
14.255001537607193 17.979924446156524 3.046675279742227
14.255829590730194 17.935517108760521 10.498702160812227
14.256657643853194 17.891109771364523 17.950729041882227
14.257485696976193 17.846702433968524 25.402755922952224
14.249435923794193 24.539012277500522 3.004505111406227
14.250263976917193 24.494604940104519 10.456531992476227
14.251092030040192 24.450197602708521 17.908558873546227
14.251920083163194 24.405790265312522 25.360585754616224
20.923093675832195 4.856332797625523 3.128952654787227
20.923921728955197 4.811925460229523 10.580979535857226
20.924749782078194 4.767518122833523 18.033006416927226
20.925577835201196 4.723110785437523 25.485033297997226
20.917528062019194 11.415420628969523 3.086782486451227
20.918356115142196 11.371013291573522 10.538809367521226
20.919184168265197 11.326605954177523 17.990836248591226
20.920012221388195 11.282198616781523 25.442863129661227
20.911962448206197 17.974508460313523 3.044612318115227
20.912790501329194 17.930101122917520 10.496639199185227
20.913618554452196 17.885693785521525 17.948666080255226
20.914446607575194 17.841286448125523 25.400692961325227
20.906396834393195 24.533596291657521 3.002442149779227
20.907224887516197 24.489188954261522 10.454469030849227
20.908052940639195 24.444781616865519 17.906495911919226
20.908880993762196 24.400374279469521 25.358522792989223
1.683107434129327 5.528796276596490 0.630077055640021
1.683935487252327 5.484388939200491 8.082103936710022
1.684763540375327 5.439981601804490 15.534130817780021
1.685591593498327 5.395574264408491 22.986157698850022
1.677541820316327 12.087884107940489 0.587906887304021
1.678369873439327 12.043476770544491 8.039933768374022
1.679197926562327 11.999069433148490 15.491960649444021
1.680025979685327 11.954662095752489 22.943987530514022
1.671976206503327 18.646971939284491 0.545736718968021
1.672804259626327 18.602564601888488 7.997763600038022
1.673632312749327 18.558157264492490 15.449790481108021
1.674460365872327 18.513749927096491 22.901817362178022
1.666410592690327 25.206059770628489 0.503566550632021
1.667238645813327 25.161652433232490 7.955593431702020
1.668066698936327 25.117245095836488 15.407620312772021
1.668894752059327 25.072837758440489 22.859647193842022
8.340068344728328 5.523380290753490 0.628014094013021
8.340896397851328 5.478972953357490 8.080040975083021
8.341724450974327 5.434565615961491 15.532067856153020
8.342552504097327 5.390158278565490 22.984094737223021
8.334502730915327 12.082468122097490 0.585843925677021
8.335330784038328 12.038060784701489 8.037870806747021
8.336158837161328 11.993653447305491 15.489897687817020
8.336986890284328 11.949246109909490 22.941924568887021
8.328937117102328 18.641555953441490 0.543673757341021
8.329765170225327 18.597148616045491 7.995700638411021
8.330593223348327 18.552741278649489 15.447727519481020
8.331421276471328 18.508333941253490 22.899754400551021
8.323371503289328 25.200643784785488 0.501503589005021
8.324199556412328 25.156236447389489 7.953530470075021
8.325027609535327 25.111829109993490 15.405557351145021
8.325855662658327 25.067421772597488 22.857584232215022
14.997029255327329 5.517964304910491 0.625951132386021
14.997857308450328 5.473556967514490 8.077978013456022
14.998685361573328 5.429149630118490 15.530004894526021
14.999513414696329 5.384742292722491 22.982031775596020
14.991463641514329 12.077052136254490 0.583780964050021
14.992291694637329 12.032644798858490 8.035807845120020
14.993119747760328 11.988237461462489 15.487834726190021
14.993947800883328 11.943830124066491 22.939861607260021
14.985898027701328 18.636139967598488 0.541610795714021
14.986726080824329 18.591732630202490 7.993637676784020
14.987554133947329 18.547325292806491 15.445664557854021
14.988382187070329 18.502917955410489 22.897691438924021
14.980332413888329 25.195227798942490 0.499440627378021
14.981160467011328 25.150820461546488 7.951467508448021
14.981988520134328 25.106413124150489 15.403494389518022
14.982816573257329 25.062005786754490 22.855521270588021
21.653990165926327 5.512548319067490 0.623888170759021
21.654818219049329 5.468140981671491 8.075915051829021
21.655646272172326 5.423733644275490 15.527941932899020
21.656474325295328 5.379326306879491 22.979968813969023
21.648424552113326 12.071636150411489 0.581718002423021
21.649252605236327 12.027228813015491 8.033744883493021
21.650080658359329 11.982821475619490 15.485771764563021
21.650908711482327 11.938414138223489 22.937798645633023
21.642858938300328 18.630723981755491 0.539547834087021
21.643686991423326 18.586316644359488 7.991574715157022
21.644515044546328 18.541909306963490 15.443601596227021
21.645343097669326 18.497501969567491 22.895628477297024
21.637293324487327 25.189811813099489 0.497377665751021
21.638121377610329 25.145404475703490 7.949404546821022
21.638949430733327 25.100997138307488 15.401431427891021
21.639777483856328 25.056589800911489 22.853458308961020
4.921649653848668 0.960847236165016 4.354656050760100
4.922477706971668 0.916439898769016 11.806682931830100
4.923305760094668 0.872032561373016 19.258709812900101
4.924133813217668 0.827625223977016 26.710736693970098
4.916084040035668 7.519935067509016 4.312485882424101
4.916912093158668 7.475527730113016 11.764512763494100
4.917740146281668 7.431120392717015 19.216539644564101
4.918568199404668 7.386713055321016 26.668566525634098
4.910518426222668 14.079022898853015 4.270315714088101
4.911346479345668 14.034615561457015 11.722342595158100
4.912174532468668 13.990208224061016 19.174369476228101
4.913002585591668 13.945800886665015 26.626396357298098
4.904952812409668 20.638110730197013 4.228145545752101
4.905780865532668 20.593703392801014 11.680172426822100
4.906608918655668 20.549296055405012 19.132199307892101
4.907436971778668 20.504888718009013 26.584226188962099
11.578610564447668 0.955431250322016 4.352593089133101
11.579438617570668 0.911023912926016 11.804619970203101
11.580266670693668 0.866616575530016 19.256646851273100
11.581094723816669 0.822209238134016 26.708673732343101
11.573044950634667 7.514519081666015 4.310422920797101
11.573873003757669 7.470111744270016 11.762449801867101
11.574701056880668 7.425704406874016 19.214476682937100
11.575529110003668 7.381297069478015 26.666503564007101
11.567479336821670 14.073606913010016 4.268252752461100
11.568307389944668 14.029199575614015 11.720279633531099
11.569135443067669 13.984792238218015 19.172306514601100
11.569963496190669 13.940384900822016 26.624333395671101
11.561913723008669 20.632694744354012 4.226082584125100
11.562741776131668 20.588287406958013 11.678109465195099
11.563569829254668 20.543880069562015 19.130136346265100
11.564397882377669 20.499472732166012 26.582163227335101
18.235571475046669 0.950015264479016 4.350530127506101
18.236399528169670 0.905607927083016 11.802557008576102
18.237227581292668 0.861200589687016 19.254583889646099
18.238055634415669 0.816793252291016 26.706610770716097
18.230005861233671 7.509103095823016 4.308359959170100
18.230833914356669 7.464695758427015 11.760386840240100
18.231661967479667 7.420288421031016 19.212413721310099
18.232490020602668 7.375881083635016 26.664440602380097
18.224440247420667 14.068190927167015 4.266189790834100
18.225268300543668 14.023783589771016 11.718216671904100
18.226096353666669 13.979376252375015 19.170243552974100
18.226924406789671 13.934968914979015 26.622270434044097
18.218874633607669 20.627278758511014 4.224019622498100
18.219702686730670 20.582871421115012 11.676046503568100
18.220530739853668 20.538464083719013 19.128073384638100
18.221358792976670 20.494056746323015 26.580100265708097
24.892532385645669 0.944599278636016 4.348467165879100
24.893360438768671 0.900191941240016 11.800494046949101
24.894188491891668 0.855784603844016 19.252520928019102
24.895016545014670 0.811377266448016 26.704547809089100
24.886966771832668 7.503687109980016 4.306296997543100
24.887794824955670 7.459279772584016 11.758323878613101
24.888622878078671 7.414872435188015 19.210350759683102
24.889450931201669 7.370465097792016 26.662377640753100
24.881401158019671 14.062774941324015 4.264126829207100
24.882229211142668 14.018367603928015 11.716153710277101
24.883057264265670 13.973960266532016 19.168180591347102
24.883885317388668 13.929552929136015 26.620207472417100
24.875835544206669 20.621862772668013 4.221956660871101
24.876663597329671 20.577455435272014 11.673983541941102
24.877491650452669 20.533048097876012 19.126010423011103
24.878319703575670 20.488640760480013 26.578037304081100
4.269862941817241 4.932981015096872 2.526262806698480
4.270690994940241 4.888573677700872 9.978289687768481
4.271519048063241 4.844166340304872 17.430316568838482
4.272347101186241 4.799759002908872 24.882343449908479
4.264297328004241 11.492068846440873 2.484092638362480
4.265125381127241 11.447661509044872 9.936119519432481
4.265953434250241 11.403254171648872 17.388146400502482
4.266781487373241 11.358846834252873 24.840173281572479
4.258731714191241 18.051156677784871 2.441922470026480
4.259559767314241 18.006749340388872 9.893949351096481
4.260387820437241 17.962342002992873 17.345976232166482
4.261215873560241 17.917934665596871 24.798003113236479
4.253166100378241 24.610244509128869 2.399752301690480
4.253994153501241 24.565837171732870 9.851779182760479
4.254822206624241 24.521429834336868 17.303806063830482
4.255650259747241 24.477022496940869 24.755832944900479
10.926823852416241 4.927565029253872 2.524199845071480
10.927651905539241 4.883157691857872 9.976226726141480
10.928479958662241 4.838750354461872 17.428253607211481
10.929308011785242 4.794343017065872 24.880280488281478
10.921258238603240 11.486652860597871 2.482029676735480
10.922086291726242 11.442245523201873 9.934056557805480
10.922914344849241 11.397838185805872 17.386083438875481
10.923742397972241 11.353430848409872 24.838110319945478
10.915692624790243 18.045740691941873 2.439859508399480
10.916520677913240 18.001333354545871 9.891886389469480
10.917348731036242 17.956926017149872 17.343913270539481
10.918176784159241 17.912518679753873 24.795940151609479
10.910127010977241 24.604828523285867 2.397689340063480
10.910955064100241 24.560421185889869 9.849716221133480
10.911783117223241 24.516013848493870 17.301743102203481
10.912611170346242 24.471606511097868 24.753769983273479
17.583784763015242 4.922149043410872 2.522136883444480
17.584612816138240 4.877741706014872 9.974163764514481
17.585440869261241 4.833334368618872 17.426190645584480
17.586268922384242 4.788927031222872 24.878217526654478
17.578219149202241 11.481236874754872 2.479966715108480
17.579047202325242 11.436829537358872 9.931993596178479
17.579875255448243 11.392422199962873 17.384020477248480
17.580703308571241 11.348014862566872 24.836047358318478
17.572653535389243 18.040324706098872 2.437796546772480
17.573481588512244 17.995917368702873 9.889823427842479
17.574309641635242 17.951510031306871 17.341850308912480
17.575137694758240 17.907102693910872 24.793877189982478
17.567087921576242 24.599412537442870 2.395626378436480
17.567915974699240 24.555005200046867 9.847653259506480
17.568744027822241 24.510597862650869 17.299680140576481
17.569572080945242 24.466190525254870 24.751707021646478
24.240745673614242 4.916733057567872 2.520073921817480
24.241573726737244 4.872325720171872 9.972100802887480
24.242401779860241 4.827918382775872 17.424127683957479
24.243229832983243 4.783511045379872 24.876154565027480
24.235180059801241 11.475820888911873 2.477903753481480
24.236008112924242 11.431413551515872 9.929930634551480
24.236836166047244 11.387006214119872 17.381957515621480
24.237664219170242 11.342598876723873 24.833984396691481
24.229614445988243 18.034908720255871 2.435733585145480
24.230442499111241 17.990501382859872 9.887760466215481
24.231270552234243 17.946094045463873 17.339787347285480
24.232098605357240 17.901686708067871 24.791814228355481
24.224048832175242 24.593996551599869 2.393563416809480
24.224876885298244 24.549589214203870 9.845590297879481
24.225704938421242 24.505181876807868 17.297617178949480
24.226532991544243 24.460774539411869 24.749644060019477
2.437323558545896 5.928089919435877 6.762319200169677
2.438151611668896 5.883682582039877 14.214346081239677
2.438979664791896 5.839275244643876 21.666372962309676
2.439807717914896 5.794867907247877 29.118399843379677
2.431757944732896 12.487177750779876 6.720149031833677
2.432585997855896 12.442770413383876 14.172175912903677
2.433414050978896 12.398363075987877 21.624202793973677
2.434242104101896 12.353955738591877 29.076229675043678
2.426192330919896 19.046265582123876 6.677978863497677
2.427020384042896 19.001858244727877 14.130005744567677
2.427848437165896 18.957450907331875 21.582032625637677
2.428676490288896 18.913043569935876 29.034059506707678
2.420626717106896 25.605353413467874 6.635808695161677
2.421454770229896 25.560946076071875 14.087835576231676
2.422282823352896 25.516538738675873 21.539862457301677
2.423110876475896 25.472131401279874 28.991889338371678
9.094284469144895 5.922673933592876 6.760256238542677
9.095112522267897 5.878266596196877 14.212283119612678
9.095940575390896 5.833859258800877 21.664310000682676
9.096768628513896 5.789451921404877 29.116336881752677
9.088718855331896 12.481761764936877 6.718086070206677
9.089546908454896 12.437354427540877 14.170112951276678
9.090374961577897 12.392947090144876 21.622139832346676
9.091203014700897 12.348539752748877 29.074166713416677
9.083153241518897 19.040849596280879 6.675915901870677
9.083981294641896 18.996442258884876 14.127942782940677
9.084809347764896 18.952034921488874 21.579969664010676
9.085637400887897 18.907627584092879 29.031996545080677
9.077587627705896 25.599937427624873 6.633745733534677
9.078415680828897 25.555530090228874 14.085772614604677
9.079243733951897 25.511122752832875 21.537799495674676
9.080071787074896 25.466715415436873 28.989826376744677
15.751245379743896 5.917257947749877 6.758193276915677
15.752073432866897 5.872850610353876 14.210220157985678
15.752901485989895 5.828443272957877 21.662247039055678
15.753729539112896 5.784035935561877 29.114273920125676
15.745679765930898 12.476345779093876 6.716023108579677
15.746507819053896 12.431938441697877 14.168049989649678
15.747335872176897 12.387531104301877 21.620076870719679
15.748163925299895 12.343123766905876 29.072103751789676
15.740114152117897 19.035433610437877 6.673852940243677
15.740942205240898 18.991026273041875 14.125879821313678
15.741770258363896 18.946618935645876 21.577906702383679
15.742598311486898 18.902211598249878 29.029933583453676
15.734548538304896 25.594521441781875 6.631682771907677
15.735376591427897 25.550114104385873 14.083709652977678
15.736204644550895 25.505706766989874 21.535736534047679
15.737032697673897 25.461299429593875 28.987763415117676
22.408206290342896 5.911841961906877 6.756130315288677
22.409034343465898 5.867434624510877 14.208157196358677
22.409862396588895 5.823027287114876 21.660184077428678
22.410690449711897 5.778619949718877 29.112210958498679
22.402640676529895 12.470929793250876 6.713960146952677
22.403468729652896 12.426522455854876 14.165987028022677
22.404296782775898 12.382115118458877 21.618013909092678
22.405124835898896 12.337707781062877 29.070040790162679
22.397075062716898 19.030017624594876 6.671789978616677
22.397903115839895 18.985610287198874 14.123816859686677
22.398731168962897 18.941202949802879 21.575843740756678
22.399559222085895 18.896795612406876 29.027870621826679
22.391509448903896 25.589105455938874 6.629619810280677
22.392337502026898 25.544698118542875 14.081646691350677
22.393165555149896 25.500290781146873 21.533673572420678
22.393993608272897 25.455883443750874 28.985700453490676
4.191355586169341 0.492021262239980 3.029976949357127
4.192183639292341 0.447613924843980 10.482003830427127
4.193011692415341 0.403206587447980 17.934030711497126
4.193839745538341 0.358799250051980 25.386057592567127
4.185789972356341 7.051109093583980 2.987806781021127
4.186618025479341 7.006701756187980 10.439833662091127
4.187446078602341 6.962294418791980 17.891860543161126
4.188274131725342 6.917887081395980 25.343887424231127
4.180224358543342 13.610196924927980 2.945636612685127
4.181052411666341 13.565789587531979 10.397663493755127
4.181880464789341 13.521382250135980 17.849690374825126
4.182708517912341 13.476974912739980 25.301717255895127
4.174658744730341 20.169284756271978 2.903466444349127
4.175486797853341 20.124877418875979 10.355493325419127
4.176314850976341 20.080470081479977 17.807520206489126
4.177142904099341 20.036062744083978 25.259547087559127
10.848316496768341 0.486605276396980 3.027913987730127
10.849144549891342 0.442197939000980 10.479940868800128
10.849972603014342 0.397790601604980 17.931967749870125
10.850800656137341 0.353383264208980 25.383994630940126
10.842750882955341 7.045693107740980 2.985743819394127
10.843578936078341 7.001285770344980 10.437770700464128
10.844406989201342 6.956878432948980 17.889797581534125
10.845235042324342 6.912471095552980 25.341824462604126
10.837185269142342 13.604780939084980 2.943573651058127
10.838013322265342 13.560373601688980 10.395600532128126
10.838841375388341 13.515966264292979 17.847627413198126
10.839669428511343 13.471558926896980 25.299654294268127
10.831619655329341 20.163868770428977 2.901403482722127
10.832447708452342 20.119461433032978 10.353430363792127
10.833275761575342 20.075054095636979 17.805457244862126
10.834103814698341 20.030646758240977 25.257484125932127
17.505277407367341 0.481189290553980 3.025851026103127
17.506105460490343 0.436781953157980 10.477877907173127
17.506933513613340 0.392374615761980 17.929904788243128
17.507761566736342 0.347967278365980 25.381931669313126
17.499711793554344 7.040277121897980 2.983680857767127
17.500539846677341 6.995869784501980 10.435707738837127
17.501367899800343 6.951462447105980 17.887734619907128
17.502195952923341 6.907055109709980 25.339761500977126
17.494146179741342 13.599364953241979 2.941510689431127
17.494974232864344 13.554957615845980 10.393537570501127
17.495802285987342 13.510550278449980 17.845564451571128
17.496630339110343 13.466142941053979 25.297591332641126
17.488580565928341 20.158452784585979 2.899340521095127
17.489408619051343 20.114045447189977 10.351367402165128
17.490236672174341 20.069638109793978 17.803394283235129
17.491064725297342 20.025230772397979 25.255421164305126
24.162238317966342 0.475773304710980 3.023788064476127
24.163066371089343 0.431365967314980 10.475814945546126
24.163894424212341 0.386958629918980 17.927841826616127
24.164722477335342 0.342551292522980 25.379868707686128
24.156672704153340 7.034861136054980 2.981617896140127
24.157500757276342 6.990453798658980 10.433644777210127
24.158328810399343 6.946046461262980 17.885671658280128
24.159156863522341 6.901639123866980 25.337698539350129
24.151107090340343 13.593948967398980 2.939447727804127
24.151935143463341 13.549541630002979 10.391474608874127
24.152763196586342 13.505134292606980 17.843501489944128
24.153591249709340 13.460726955210980 25.295528371014129
24.145541476527342 20.153036798742978 2.897277559468127
24.146369529650343 20.108629461346979 10.349304440538127
24.147197582773341 20.064222123950977 17.801331321608128
24.148025635896342 20.019814786554978 25.253358202678125
2.807035200883808 0.839369047463731 4.910703753189856
2.807863254006808 0.794961710067731 12.362730634259856
2.808691307129808 0.750554372671731 19.814757515329855
2.809519360252808 0.706147035275731 27.266784396399856
2.801469587070808 7.398456878807731 4.868533584853856
2.802297640193808 7.354049541411731 12.320560465923856
2.803125693316808 7.309642204015731 19.772587346993856
2.803953746439808 7.265234866619731 27.224614228063857
2.795903973257808 13.957544710151730 4.826363416517856
2.796732026380808 13.913137372755729 12.278390297587856
2.797560079503808 13.868730035359730 19.730417178657856
2.798388132626808 13.824322697963730 27.182444059727857
2.790338359444808 20.516632541495728 4.784193248181856
2.791166412567808 20.472225204099729 12.236220129251855
2.791994465690808 20.427817866703727 19.688247010321856
2.792822518813808 20.383410529307728 27.140273891391857
9.463996111482809 0.833953061620731 4.908640791562856
9.464824164605808 0.789545724224731 12.360667672632857
9.465652217728810 0.745138386828731 19.812694553702855
9.466480270851807 0.700731049432731 27.264721434772856