DMC-ICE13 ice XI; Cartesian 2x2x2 supercell
1.0
8.824346652414000 0.000000000000000 0.000000000000000
0.000000000000000 15.326976189950001 0.000248606494000
0.000000000000000 0.000234042566000 14.399184226014000
H O
128 64
Cartesian
0.000000000000000 4.143819585155801 0.143256839167901
0.000000000000000 4.143936606438801 7.342848952174901
0.000000000000000 11.807307680130801 0.143381142414901
0.000000000000000 11.807424701413801 7.342973255421901
4.412173326207000 4.143819585155801 0.143256839167901
4.412173326207000 4.143936606438801 7.342848952174901
4.412173326207000 11.807307680130801 0.143381142414901
4.412173326207000 11.807424701413801 7.342973255421901
0.000000000000000 5.091008737909317 1.439410046069054
0.000000000000000 5.091125759192317 8.639002159076055
0.000000000000000 12.754496832884318 1.439534349316054
0.000000000000000 12.754613854167317 8.639126462323055
4.412173326207000 5.091008737909317 1.439410046069054
4.412173326207000 5.091125759192317 8.639002159076055
4.412173326207000 12.754496832884318 1.439534349316054
4.412173326207000 12.754613854167317 8.639126462323055
0.000000000000000 3.519747177079960 3.743027963746334
0.000000000000000 3.519864198362960 10.942620076753334
0.000000000000000 11.183235272054960 3.743152266993333
0.000000000000000 11.183352293337959 10.942744380000335
4.412173326207000 3.519747177079960 3.743027963746334
4.412173326207000 3.519864198362960 10.942620076753334
4.412173326207000 11.183235272054960 3.743152266993333
4.412173326207000 11.183352293337959 10.942744380000335
0.000000000000000 2.572532211461262 5.039116197894220
0.000000000000000 2.572649232744262 12.238708310901220
0.000000000000000 10.236020306436263 5.039240501141220
0.000000000000000 10.236137327719263 12.238832614148221
4.412173326207000 2.572532211461262 5.039116197894220
4.412173326207000 2.572649232744262 12.238708310901220
4.412173326207000 10.236020306436263 5.039240501141220
4.412173326207000 10.236137327719263 12.238832614148221
2.206082624694201 1.259266420629354 1.439369040014030
2.206082624694201 1.259383441912354 8.638961153021031
2.206082624694201 8.922754515604353 1.439493343261030
2.206082624694201 8.922871536887353 8.639085456268031
6.618255950901201 1.259266420629354 1.439369040014030
6.618255950901201 1.259383441912354 8.638961153021031
6.618255950901201 8.922754515604353 1.439493343261030
6.618255950901201 8.922871536887353 8.639085456268031
2.206082624694201 0.312102005642591 0.143229293101182
2.206082624694201 0.312219026925591 7.342821406108182
2.206082624694201 7.975590100617592 0.143353596348182
2.206082624694201 7.975707121900592 7.342945709355183
6.618255950901201 0.312102005642591 0.143229293101182
6.618255950901201 0.312219026925591 7.342821406108182
6.618255950901201 7.975590100617592 0.143353596348182
6.618255950901201 7.975707121900592 7.342945709355183
2.206082624694201 6.404225698282535 5.039269416201437
2.206082624694201 6.404342719565535 12.238861529208437
2.206082624694201 14.067713793257536 5.039393719448437
2.206082624694201 14.067830814540535 12.238985832455437
6.618255950901201 6.404225698282535 5.039269416201437
6.618255950901201 6.404342719565535 12.238861529208437
6.618255950901201 14.067713793257536 5.039393719448437
6.618255950901201 14.067830814540535 12.238985832455437
2.206082624694201 7.351446144936878 3.743164311381458
2.206082624694201 7.351563166219877 10.942756424388458
2.206082624694201 15.014934239911877 3.743288614628458
2.206082624694201 15.015051261194877 10.942880727635458
6.618255950901201 7.351446144936878 3.743164311381458
6.618255950901201 7.351563166219877 10.942756424388458
6.618255950901201 15.014934239911877 3.743288614628458
6.618255950901201 15.015051261194877 10.942880727635458
1.405062488307225 5.886544803098435 7.082481702953350
1.405062488307225 5.886661824381434 14.282073815960350
1.405062488307225 13.550032898073436 7.082606006200351
1.405062488307225 13.550149919356436 14.282198119207351
5.817235814514225 5.886544803098435 7.082481702953350
5.817235814514225 5.886661824381434 14.282073815960350
5.817235814514225 13.550032898073436 7.082606006200351
5.817235814514225 13.550149919356436 14.282198119207351
3.007105789888151 5.886544803098435 7.082481702953350
3.007105789888151 5.886661824381434 14.282073815960350
3.007105789888151 13.550032898073436 7.082606006200351
3.007105789888151 13.550149919356436 14.282198119207351
7.419279116095151 5.886544803098435 7.082481702953350
7.419279116095151 5.886661824381434 14.282073815960350
7.419279116095151 13.550032898073436 7.082606006200351
7.419279116095151 13.550149919356436 14.282198119207351
1.405086602471369 1.777113160663646 3.482607316525991
1.405086602471369 1.777230181946646 10.682199429532991
1.405086602471369 9.440601255638647 3.482731619772991
1.405086602471369 9.440718276921647 10.682323732779992
5.817259928678370 1.777113160663646 3.482607316525991
5.817259928678370 1.777230181946646 10.682199429532991
5.817259928678370 9.440601255638647 3.482731619772991
5.817259928678370 9.440718276921647 10.682323732779992
3.007082685321919 1.777113160663646 3.482607316525991
3.007082685321919 1.777230181946646 10.682199429532991
3.007082685321919 9.440601255638647 3.482731619772991
3.007082685321919 9.440718276921647 10.682323732779992
7.419256011528919 1.777113160663646 3.482607316525991
7.419256011528919 1.777230181946646 10.682199429532991
7.419256011528919 9.440601255638647 3.482731619772991
7.419256011528919 9.440718276921647 10.682323732779992
0.801008542369112 2.054814580043319 7.082395381868206
0.801008542369112 2.054931601326319 14.281987494875207
0.801008542369112 9.718302675018320 7.082519685115207
0.801008542369112 9.718419696301320 14.282111798122207
5.213181868576113 2.054814580043319 7.082395381868206
5.213181868576113 2.054931601326319 14.281987494875207
5.213181868576113 9.718302675018320 7.082519685115207
5.213181868576113 9.718419696301320 14.282111798122207
3.611159735821851 2.054814580043319 7.082395381868206
3.611159735821851 2.054931601326319 14.281987494875207
3.611159735821851 9.718302675018320 7.082519685115207
3.611159735821851 9.718419696301320 14.282111798122207
8.023333062028851 2.054814580043319 7.082395381868206
8.023333062028851 2.054931601326319 14.281987494875207
8.023333062028851 9.718302675018320 7.082519685115207
8.023333062028851 9.718419696301320 14.282111798122207
0.801005669263323 5.608885328000487 3.482650008230518
0.801005669263323 5.609002349283487 10.682242121237518
0.801005669263323 13.272373422975488 3.482774311477518
0.801005669263323 13.272490444258487 10.682366424484519
5.213178995470322 5.608885328000487 3.482650008230518
5.213178995470322 5.609002349283487 10.682242121237518
5.213178995470322 13.272373422975488 3.482774311477518
5.213178995470322 13.272490444258487 10.682366424484519
3.611162608932054 5.608885328000487 3.482650008230518
3.611162608932054 5.609002349283487 10.682242121237518
3.611162608932054 13.272373422975488 3.482774311477518
3.611162608932054 13.272490444258487 10.682366424484519
8.023335935139054 5.608885328000487 3.482650008230518
8.023335935139054 5.609002349283487 10.682242121237518
8.023335935139054 13.272373422975488 3.482774311477518
8.023335935139054 13.272490444258487 10.682366424484519
0.000000000000000 5.101543673558890 0.437632566096773
0.000000000000000 5.101660694841890 7.637224679103773
0.000000000000000 12.765031768533891 0.437756869343773
0.000000000000000 12.765148789816891 7.637348982350773
4.412173326207000 5.101543673558890 0.437632566096773
4.412173326207000 5.101660694841890 7.637224679103773
4.412173326207000 12.765031768533891 0.437756869343773
4.412173326207000 12.765148789816891 7.637348982350773
0.000000000000000 2.562009026098923 4.037343522904401
0.000000000000000 2.562126047381923 11.236935635911401
0.000000000000000 10.225497121073923 4.037467826151402
0.000000000000000 10.225614142356923 11.237059939158403
4.412173326207000 2.562009026098923 4.037343522904401
4.412173326207000 2.562126047381923 11.236935635911401
4.412173326207000 10.225497121073923 4.037467826151402
4.412173326207000 10.225614142356923 11.237059939158403
2.206082624694201 1.269815825782048 0.437583213551726
2.206082624694201 1.269932847065048 7.637175326558726
2.206082624694201 8.933303920757048 0.437707516798726
2.206082624694201 8.933420942040048 7.637299629805726
6.618255950901201 1.269815825782048 0.437583213551726
6.618255950901201 1.269932847065048 7.637175326558726
6.618255950901201 8.933303920757048 0.437707516798726
6.618255950901201 8.933420942040048 7.637299629805726
2.206082624694201 6.393703982141244 4.037495332923237
2.206082624694201 6.393821003424244 11.237087445930237
2.206082624694201 14.057192077116245 4.037619636170238
2.206082624694201 14.057309098399244 11.237211749177238
6.618255950901201 6.393703982141244 4.037495332923237
6.618255950901201 6.393821003424244 11.237087445930237
6.618255950901201 14.057192077116245 4.037619636170238
6.618255950901201 14.057309098399244 11.237211749177238
2.206082624694201 6.382957472304721 6.742066526645335
2.206082624694201 6.383074493587721 13.941658639652335
2.206082624694201 14.046445567279722 6.742190829892335
2.206082624694201 14.046562588562722 13.941782942899335
6.618255950901201 6.382957472304721 6.742066526645335
6.618255950901201 6.383074493587721 13.941658639652335
6.618255950901201 14.046445567279722 6.742190829892335
6.618255950901201 14.046562588562722 13.941782942899335
2.206082624694201 1.280783040497612 3.142020203252210
2.206082624694201 1.280900061780612 10.341612316259210
2.206082624694201 8.944271135472611 3.142144506499210
2.206082624694201 8.944388156755611 10.341736619506211
6.618255950901201 1.280783040497612 3.142020203252210
6.618255950901201 1.280900061780612 10.341612316259210
6.618255950901201 8.944271135472611 3.142144506499210
6.618255950901201 8.944388156755611 10.341736619506211
4.412169287797701 2.551181848089013 6.741895467273333
4.412169287797701 2.551298869372014 13.941487580280334
4.412169287797701 10.214669943064013 6.742019770520334
4.412169287797701 10.214786964347013 13.941611883527333
8.824342614004701 2.551181848089013 6.741895467273333
8.824342614004701 2.551298869372014 13.941487580280334
8.824342614004701 10.214669943064013 6.742019770520334
8.824342614004701 10.214786964347013 13.941611883527333
4.412169287797701 5.112525368760817 3.142126364543278
4.412169287797701 5.112642390043817 10.341718477550279
4.412169287797701 12.776013463735818 3.142250667790278
4.412169287797701 12.776130485018818 10.341842780797279
8.824342614004701 5.112525368760817 3.142126364543278
8.824342614004701 5.112642390043817 10.341718477550279
8.824342614004701 12.776013463735818 3.142250667790278
8.824342614004701 12.776130485018818 10.341842780797279
