# DMC13_GXTB_PROTOCOL dmc13-gxtb-spglib-reduced-v1
&GLOBAL
  PRINT_LEVEL LOW
  PROJECT ice_XIV_GXTB_k555
  RUN_TYPE ENERGY
&END GLOBAL

&FORCE_EVAL
  METHOD Quickstep
  &DFT
    &QS
      EPS_DEFAULT 1.0E-12
      METHOD xTB
      &XTB
        GFN_TYPE TBLITE
        &TBLITE
          METHOD GXTB
          ACCURACY 0.1
        &END TBLITE
        SCC_MIXER TBLITE
        &TBLITE_MIXER
          ITERATIONS 300
        &END TBLITE_MIXER
      &END XTB
    &END QS
    &KPOINTS
      SCHEME MACDONALD 5 5 5 0.0 0.0 0.0
      SYMMETRY T
      FULL_GRID F
      SYMMETRY_BACKEND SPGLIB
      SYMMETRY_REDUCTION_METHOD SPGLIB
    &END KPOINTS
    &SCF
      EPS_SCF 1.0E-9
      MAX_SCF 300
      SCF_GUESS MOPAC
      &MIXING
        METHOD DIRECT_P_MIXING
        ALPHA 0.2
      &END MIXING
      &PRINT
        &RESTART OFF
        &END RESTART
      &END PRINT
    &END SCF
  &END DFT
  &SUBSYS
    &CELL
      CANONICALIZE TRUE
      PERIODIC XYZ
      A 8.368112000000 0.000000000000 0.000000000000
      B 0.000000000000 8.156852000000 0.000000000000
      C 0.000000000000 0.000000000000 4.091404000000
    &END CELL
    &COORD
      SCALED
      H   0.532719000000  0.836729000000  0.482705000000
      H   0.091750000000  0.204620000000  0.261633000000
      H   0.786476000000 -0.025854000000  0.907095000000
      H   0.726750000000  0.468217000000  0.319987000000
      H   0.411549000000  0.586461000000  0.363645000000
      H   0.844340000000  0.326950000000  0.399832000000
      H   0.408250000000  0.795380000000  0.761633000000
      H   0.088451000000  0.413539000000  0.863645000000
      H  -0.032719000000  0.163271000000 -0.017295000000
      H   0.773250000000  0.531783000000  0.819987000000
      H   0.655660000000  0.673050000000  0.899832000000
      H   1.032719000000  0.663271000000  0.517295000000
      H   0.911549000000 -0.086461000000  0.636355000000
      H   0.588452000000  1.086461000000  0.136355000000
      H   0.908250000000  0.704620000000  0.238367000000
      H   0.273250000000  0.968217000000  0.180013000000
      H   0.155660000000  0.826950000000  0.100168000000
      H   0.286476000000  0.525854000000  0.092905000000
      H   0.713524000000  1.025854000000  0.407095000000
      H   0.226750000000  0.031783000000  0.680013000000
      H   0.344340000000  0.173050000000  0.600168000000
      H   0.467281000000  0.336729000000  1.017295000000
      H   0.213524000000  0.474146000000  0.592905000000
      H   0.591750000000  0.295380000000  0.738367000000
      O   0.006552000000  0.253121000000  0.124572000000
      O   0.640258000000  0.988040000000  0.232032000000
      O   0.246537000000  0.888410000000  0.005046000000
      O   0.493448000000  0.746879000000  0.624572000000
      O   0.253463000000  0.111590000000  0.505046000000
      O   0.859742000000  0.011960000000  0.732032000000
      O   0.746537000000  0.611590000000  0.994954000000
      O   0.753463000000  0.388410000000  0.494954000000
      O   0.993448000000  0.753121000000  0.375428000000
      O   0.359742000000  0.488040000000  0.267968000000
      O   0.140258000000  0.511960000000  0.767968000000
      O   0.506552000000  0.246879000000  0.875428000000
    &END COORD
  &END SUBSYS
&END FORCE_EVAL
