DMC-ICE13 ice XVII; Cartesian 3x3x3 supercell
1.0
9.350259133182000 16.128523785780001 -0.061244724507000
-9.299550104385000 16.159806804852000 -0.087917052582000
-0.026164359750000 0.082940512515000 17.828427944118001
H O
324 162
Cartesian
2.448931621608240 5.647847862745304 1.136540975676218
2.440210168358240 5.675494700250304 7.079350290382219
2.431488715108240 5.703141537755304 13.022159605088218
-0.650918413186760 11.034450131029304 1.107235291482218
-0.659639866436760 11.062096968534306 7.050044606188218
-0.668361319686760 11.089743806039305 12.992853920894218
-3.750768447981760 16.421052399313304 1.077929607288218
-3.759489901231760 16.448699236818303 7.020738921994218
-3.768211354481761 16.476346074323306 12.963548236700218
5.565684666002240 11.024022458005305 1.116126067507218
5.556963212752240 11.051669295510305 7.058935382213218
5.548241759502240 11.079316133015304 13.001744696919218
2.465834631207240 16.410624726289306 1.086820383313218
2.457113177957240 16.438271563794306 7.029629698019218
2.448391724707240 16.465918401299305 12.972439012725218
-0.634015403587760 21.797226994573304 1.057514699119218
-0.642736856837760 21.824873832078307 7.000324013825218
-0.651458310087760 21.852520669583306 12.943133328531218
8.682437710396240 16.400197053265305 1.095711159338218
8.673716257146241 16.427843890770305 7.038520474044218
8.664994803896240 16.455490728275304 12.981329788750218
5.582587675601240 21.786799321549307 1.066405475144218
5.573866222351240 21.814446159054306 7.009214789850218
5.565144769101240 21.842092996559305 12.952024104556218
2.482737640806240 27.173401589833308 1.037099790950218
2.474016187556240 27.201048427338307 6.979909105656218
2.465294734306240 27.228695264843306 12.922718420362218
-2.906763441172432 5.097306504470466 3.112551681508873
-2.915484894422432 5.124953341975466 9.055360996214873
-2.924206347672432 5.152600179480466 14.998170310920873
-6.006613475967432 10.483908772754466 3.083245997314873
-6.015334929217433 10.511555610259467 9.026055312020873
-6.024056382467432 10.539202447764467 14.968864626726873
-9.106463510762433 15.870511041038466 3.053940313120873
-9.115184964012432 15.898157878543465 8.996749627826873
-9.123906417262432 15.925804716048468 14.939558942532873
0.209989603221568 10.473481099730467 3.092136773339873
0.201268149971568 10.501127937235466 9.034946088045874
0.192546696721568 10.528774774740466 14.977755402751875
-2.889860431573432 15.860083368014468 3.062831089145873
-2.898581884823432 15.887730205519468 9.005640403851874
-2.907303338073432 15.915377043024467 14.948449718557875
-5.989710466368432 21.246685636298466 3.033525404951873
-5.998431919618433 21.274332473803469 8.976334719657874
-6.007153372868432 21.301979311308468 14.919144034363875
3.326742647615568 15.849655694990467 3.071721865170873
3.318021194365568 15.877302532495467 9.014531179876872
3.309299741115568 15.904949370000466 14.957340494582873
0.226892612820568 21.236257963274468 3.042416180976873
0.218171159570568 21.263904800779468 8.985225495682872
0.209449706320568 21.291551638284467 14.928034810388873
-2.872957421974432 26.622860231558469 3.013110496782873
-2.881678875224432 26.650507069063469 8.955919811488872
-2.890400328474432 26.678153906568468 14.898729126194873
0.252239614525596 0.753547956079230 5.118155151367717
0.243518161275596 0.781194793584230 11.060964466073717
0.234796708025596 0.808841631089230 17.003773780779717
-2.847610420269404 6.140150224363230 5.088849467173717
-2.856331873519404 6.167797061868231 11.031658781879717
-2.865053326769404 6.195443899373230 16.974468096585717
-5.947460455064404 11.526752492647230 5.059543782979717
-5.956181908314404 11.554399330152229 11.002353097685717
-5.964903361564405 11.582046167657230 16.945162412391717
3.368992658919596 6.129722551339230 5.097740243198717
3.360271205669596 6.157369388844231 11.040549557904718
3.351549752419596 6.185016226349230 16.983358872610719
0.269142624124596 11.516324819623231 5.068434559004717
0.260421170874596 11.543971657128230 11.011243873710718
0.251699717624596 11.571618494633229 16.954053188416719
-2.830707410670404 16.902927087907230 5.039128874810717
-2.839428863920404 16.930573925412233 10.981938189516718
-2.848150317170404 16.958220762917232 16.924747504222719
6.485745703313596 11.505897146599230 5.077325335029717
6.477024250063597 11.533543984104229 11.020134649735716
6.468302796813596 11.561190821609230 16.962943964441717
3.385895668518596 16.892499414883233 5.048019650835717
3.377174215268596 16.920146252388232 10.990828965541716
3.368452762018596 16.947793089893231 16.933638280247717
0.286045633723596 22.279101683167234 5.018713966641717
0.277324180473596 22.306748520672233 10.961523281347716
0.268602727223596 22.334395358177233 16.904332596053717
2.039085816350638 4.154625516557047 1.532720868226767
2.030364363100638 4.182272354062047 7.475530182932768
2.021642909850638 4.209919191567047 13.418339497638767
-1.060764218444362 9.541227784841048 1.503415184032767
-1.069485671694363 9.568874622346048 7.446224498738768
-1.078207124944362 9.596521459851047 13.389033813444767
-4.160614253239363 14.927830053125048 1.474109499838767
-4.169335706489362 14.955476890630047 7.416918814544768
-4.178057159739363 14.983123728135048 13.359728129250767
5.155838860744637 9.530800111817047 1.512305960057767
5.147117407494638 9.558446949322047 7.455115274763767
5.138395954244638 9.586093786827046 13.397924589469767
2.055988825949638 14.917402380101048 1.483000275863767
2.047267372699638 14.945049217606048 7.425809590569767
2.038545919449638 14.972696055111047 13.368618905275767
-1.043861208845362 20.304004648385046 1.453694591669767
-1.052582662095363 20.331651485890049 7.396503906375767
-1.061304115345362 20.359298323395048 13.339313221081767
8.272591905138638 14.906974707077048 1.491891051888767
8.263870451888639 14.934621544582047 7.434700366594767
8.255148998638639 14.962268382087048 13.377509681300767
5.172741870343637 20.293576975361049 1.462585367694767
5.164020417093638 20.321223812866048 7.405394682400767
5.155298963843638 20.348870650371047 13.348203997106767
2.072891835548638 25.680179243645050 1.433279683500767
2.064170382298637 25.707826081150049 7.376088998206767
2.055448929048638 25.735472918655049 13.318898312912767
-1.407600845999569 5.490504049025038 3.502873169000408
-1.416322299249569 5.518150886530038 9.445682483706408
-1.425043752499569 5.545797724035038 15.388491798412408
-4.507450880794569 10.877106317309039 3.473567484806408
-4.516172334044569 10.904753154814038 9.416376799512408
-4.524893787294570 10.932399992319038 15.359186114218408
-7.607300915589569 16.263708585593037 3.444261800612408
-7.616022368839570 16.291355423098040 9.387071115318408
-7.624743822089570 16.319002260603039 15.329880430024408
1.709152198394431 10.866678644285038 3.482458260831408
1.700430745144431 10.894325481790037 9.425267575537408
1.691709291894431 10.921972319295037 15.368076890243408
-1.390697836400569 16.253280912569039 3.453152576637408
-1.399419289650569 16.280927750074039 9.395961891343408
-1.408140742900569 16.308574587579038 15.338771206049408
-4.490547871195569 21.639883180853037 3.423846892443408
-4.499269324445569 21.667530018358040 9.366656207149408
-4.507990777695570 21.695176855863039 15.309465521855408
4.825905242788432 16.242853239545038 3.462043352662408
4.817183789538431 16.270500077050038 9.404852667368408
4.808462336288430 16.298146914555041 15.347661982074408
1.726055207993431 21.629455507829039 3.432737668468408
1.717333754743431 21.657102345334039 9.375546983174408
1.708612301493431 21.684749182839038 15.318356297880408
-1.373794826801569 27.016057776113040 3.403431984274408
-1.382516280051569 27.043704613618040 9.346241298980408
-1.391237733301569 27.071351451123039 15.289050613686408
-0.837843255348038 1.857654470505858 5.501496756265968
-0.846564708598038 1.885301308010858 11.444306070971969
-0.855286161848038 1.912948145515858 17.387115385677969
-3.937693290143038 7.244256738789858 5.472191072071968
-3.946414743393039 7.271903576294859 11.415000386777969
-3.955136196643038 7.299550413799858 17.357809701483969
-7.037543324938039 12.630859007073859 5.442885387877967
-7.046264778188038 12.658505844578858 11.385694702583969
-7.054986231438039 12.686152682083859 17.328504017289969
2.278909789045962 7.233829065765859 5.481081848096967
2.270188335795962 7.261475903270858 11.423891162802967
2.261466882545962 7.289122740775857 17.366700477508967
-0.820940245749038 12.620431334049860 5.451776163902967
-0.829661698999038 12.648078171554859 11.394585478608967
-0.838383152249038 12.675725009059859 17.337394793314967
-3.920790280544038 18.007033602333856 5.422470479708967
-3.929511733794039 18.034680439838858 11.365279794414967
-3.938233187044038 18.062327277343858 17.308089109120967
5.395662833439962 12.610003661025859 5.460666939927967
5.386941380189962 12.637650498530858 11.403476254633969
5.378219926939962 12.665297336035859 17.346285569339969
2.295812798644962 17.996605929309858 5.431361255733967
2.287091345394962 18.024252766814858 11.374170570439968
2.278369892144962 18.051899604319857 17.316979885145969
-0.804037236150038 23.383208197593859 5.402055571539967
-0.812758689400038 23.410855035098859 11.344864886245968
-0.821480142650038 23.438501872603858 17.287674200951969
0.717292078382304 5.824670091825422 2.538224208004126
0.708570625132304 5.852316929330422 8.481033522710126
0.699849171882304 5.879963766835422 14.423842837416126
-2.382557956412696 11.211272360109422 2.508918523810126
-2.391279409662697 11.238919197614422 8.451727838516126
-2.400000862912696 11.266566035119421 14.394537153222126
-5.482407991207697 16.597874628393424 2.479612839616126
-5.491129444457696 16.625521465898423 8.422422154322126
-5.499850897707697 16.653168303403422 14.365231469028126
3.834045122776304 11.200844687085421 2.517809299835126
3.825323669526304 11.228491524590423 8.460618614541126
3.816602216276304 11.256138362095422 14.403427929247126
0.734195087981304 16.587446955369423 2.488503615641126
0.725473634731304 16.615093792874422 8.431312930347126
0.716752181481304 16.642740630379421 14.374122245053126
-2.365654946813696 21.974049223653420 2.459197931447126
-2.374376400063697 22.001696061158423 8.402007246153126
-2.383097853313696 22.029342898663423 14.344816560859126
6.950798167170304 16.577019282345422 2.497394391666126
6.942076713920304 16.604666119850421 8.440203706372126
6.933355260670304 16.632312957355424 14.383013021078126
3.850948132375304 21.963621550629423 2.468088707472126
3.842226679125304 21.991268388134422 8.410898022178126
3.833505225875304 22.018915225639422 14.353707336884126
0.751098097580304 27.350223818913424 2.438783023278126
0.742376644330304 27.377870656418423 8.381592337984126
0.733655191080304 27.405517493923423 14.324401652690126
0.923859462426529 8.896542456136281 4.505184581867880
0.915138009176529 8.924189293641280 10.447993896573880
0.906416555926529 8.951836131146282 16.390803211279881
-2.175990572368471 14.283144724420282 4.475878897673880
-2.184712025618471 14.310791561925281 10.418688212379880
-2.193433478868471 14.338438399430281 16.361497527085881
-5.275840607163471 19.669746992704283 4.446573213479880
-5.284562060413471 19.697393830209279 10.389382528185880
-5.293283513663471 19.725040667714282 16.332191842891881
4.040612506820529 14.272717051396281 4.484769673698880
4.031891053570529 14.300363888901281 10.427578988404880
4.023169600320530 14.328010726406280 16.370388303110879
0.940762472025529 19.659319319680282 4.455463989504880
0.932041018775529 19.686966157185282 10.398273304210880
0.923319565525529 19.714612994690281 16.341082618916879
-2.159087562769471 25.045921587964280 4.426158305310880
-2.167809016019471 25.073568425469283 10.368967620016880
-2.176530469269471 25.101215262974282 16.311776934722879
7.157365551214530 19.648891646656281 4.464354765529880
7.148644097964530 19.676538484161281 10.407164080235880
7.139922644714529 19.704185321666280 16.349973394941880
4.057515516419529 25.035493914940282 4.435049081335880
4.048794063169529 25.063140752445282 10.377858396041880
4.040072609919529 25.090787589950281 16.320667710747880
0.957665481624529 30.422096183224284 4.405743397141880
0.948944028374529 30.449743020729283 10.348552711847880
0.940222575124529 30.477389858234282 16.291362026553880
-1.826894881295619 7.529512060820658 0.546014179415357
-1.835616334545619 7.557158898325659 6.488823494121357
-1.844337787795619 7.584805735830658 12.431632808827358
-4.926744916090620 12.916114329104659 0.516708495221357
-4.935466369340619 12.943761166609658 6.459517809927357
-4.944187822590619 12.971408004114657 12.402327124633358
-8.026594950885620 18.302716597388660 0.487402811027357
-8.035316404135619 18.330363434893659 6.430212125733357
-8.044037857385620 18.358010272398658 12.373021440439357
1.289858163098381 12.905686656080658 0.525599271246357
1.281136709848381 12.933333493585659 6.468408585952357
1.272415256598381 12.960980331090658 12.411217900658357
-1.809991871696619 18.292288924364659 0.496293587052357
-1.818713324946619 18.319935761869658 6.439102901758357
-1.827434778196619 18.347582599374658 12.381912216464357
-4.909841906491620 23.678891192648656 0.466987902858357
-4.918563359741619 23.706538030153659 6.409797217564357
-4.927284812991619 23.734184867658659 12.352606532270357
4.406611207492381 18.281861251340658 0.505184363077357
4.397889754242382 18.309508088845657 6.447993677783357
4.389168300992381 18.337154926350660 12.390802992489357
1.306761172697381 23.668463519624659 0.475878678883357
1.298039719447381 23.696110357129658 6.418687993589357
1.289318266197381 23.723757194634658 12.361497308295357
-1.793088862097619 29.055065787908660 0.446572994689357
-1.801810315347619 29.082712625413659 6.389382309395357
-1.810531768597619 29.110359462918659 12.332191624101357
-0.663251443061805 7.340277832327126 1.630596766133060
-0.671972896311805 7.367924669832126 7.573406080839060
-0.680694349561805 7.395571507337126 13.516215395545061
-3.763101477856805 12.726880100611126 1.601291081939060
-3.771822931106805 12.754526938116125 7.544100396645060
-3.780544384356805 12.782173775621125 13.486909711351061
-6.862951512651805 18.113482368895127 1.571985397745060
-6.871672965901805 18.141129206400127 7.514794712451060
-6.880394419151806 18.168776043905126 13.457604027157061
2.453501601332195 12.716452427587125 1.610181857964060
2.444780148082195 12.744099265092126 7.552991172670060
2.436058694832195 12.771746102597126 13.495800487376060
-0.646348433462805 18.103054695871126 1.580876173770060
-0.655069886712805 18.130701533376126 7.523685488476060
-0.663791339962805 18.158348370881125 13.466494803182060
-3.746198468257805 23.489656964155124 1.551570489576060
-3.754919921507805 23.517303801660127 7.494379804282060
-3.763641374757805 23.544950639165126 13.437189118988060
5.570254645726195 18.092627022847125 1.589766949795060
5.561533192476196 18.120273860352125 7.532576264501060
5.552811739226195 18.147920697857128 13.475385579207060
2.470404610931195 23.479229291131126 1.560461265601060
2.461683157681195 23.506876128636126 7.503270580307060
2.452961704431195 23.534522966141125 13.446079895013060
-0.629445423863805 28.865831559415128 1.531155581407060
-0.638166877113805 28.893478396920127 7.473964896113060
-0.646888330363805 28.921125234425126 13.416774210819060
0.300564946363625 6.935217472820593 3.614728761766080
0.291843493113625 6.962864310325593 9.557538076472081
0.283122039863625 6.990511147830593 15.500347391178082
-2.799285088431375 12.321819741104594 3.585423077572080
-2.808006541681376 12.349466578609594 9.528232392278081
-2.816727994931375 12.377113416114593 15.471041706984082
-5.899135123226375 17.708422009388592 3.556117393378080
-5.907856576476375 17.736068846893595 9.498926708084081
-5.916578029726375 17.763715684398594 15.441736022790082
3.417317990757625 12.311392068080593 3.594313853597080
3.408596537507625 12.339038905585593 9.537123168303079
3.399875084257625 12.366685743090592 15.479932483009080
0.317467955962625 17.697994336364594 3.565008169403080
0.308746502712625 17.725641173869594 9.507817484109079
0.300025049462625 17.753288011374593 15.450626798815080
-2.782382078832375 23.084596604648592 3.535702485209080
-2.791103532082376 23.112243442153595 9.478511799915079
-2.799824985332375 23.139890279658594 15.421321114621080
6.534071035151626 17.687566663340593 3.573898945428080
6.525349581901626 17.715213500845593 9.516708260134081
6.516628128651625 17.742860338350596 15.459517574840081
3.434221000356625 23.074168931624595 3.544593261234080
3.425499547106625 23.101815769129594 9.487402575940081
3.416778093856625 23.129462606634593 15.430211890646081
0.334370965561625 28.460771199908596 3.515287577040080
0.325649512311625 28.488418037413595 9.458096891746081
0.316928059061625 28.516064874918595 15.400906206452081
0.172975151704420 7.988958098801410 5.590652401835019
0.164253698454420 8.016604936306409 11.533461716541019
0.155532245204420 8.044251773811411 17.476271031247020
-2.926874883090580 13.375560367085409 5.561346717641019
-2.935596336340581 13.403207204590410 11.504156032347019
-2.944317789590580 13.430854042095410 17.446965347053020
-6.026724917885581 18.762162635369410 5.532041033447019
-6.035446371135580 18.789809472874410 11.474850348153019
-6.044167824385581 18.817456310379413 17.417659662859020
3.289728196098420 13.365132694061410 5.570237493666019
3.281006742848420 13.392779531566411 11.513046808372019
3.272285289598420 13.420426369071411 17.455856123078021
0.189878161303420 18.751734962345409 5.540931809472019
0.181156708053420 18.779381799850412 11.483741124178019
0.172435254803420 18.807028637355408 17.426550438884021
-2.909971873491580 24.138337230629411 5.511626125278019
-2.918693326741581 24.165984068134414 11.454435439984019
-2.927414779991580 24.193630905639409 17.397244754690021
6.406481240492420 18.741307289321412 5.549822585497019
6.397759787242420 18.768954126826408 11.492631900203019
6.389038333992420 18.796600964331411 17.435441214909019
3.306631205697420 24.127909557605413 5.520516901303019
3.297909752447420 24.155556395110409 11.463326216009019
3.289188299197420 24.183203232615412 17.406135530715019
0.206781170902420 29.514511825889414 5.491211217109019
0.198059717652420 29.542158663394410 11.434020531815019
0.189338264402420 29.569805500899413 17.376829846521019
-0.077774671381044 1.323933249602572 5.872738707363856
-0.086496124631044 1.351580087107572 11.815548022069857
-0.095217577881044 1.379226924612572 17.758357336775859
-3.177624706176044 6.710535517886572 5.843433023169856
-3.186346159426044 6.738182355391572 11.786242337875857
-3.195067612676044 6.765829192896572 17.729051652581859
-6.277474740971044 12.097137786170572 5.814127338975856
-6.286196194221044 12.124784623675572 11.756936653681857
-6.294917647471045 12.152431461180573 17.699745968387859
3.038978373012956 6.700107844862572 5.852323799194856
3.030256919762956 6.727754682367572 11.795133113900857
3.021535466512956 6.755401519872572 17.737942428606857
-0.060871661782044 12.086710113146573 5.823018115000856
-0.069593115032044 12.114356950651572 11.765827429706857
-0.078314568282044 12.142003788156572 17.708636744412857
-3.160721696577044 17.473312381430571 5.793712430806856
-3.169443149827044 17.500959218935574 11.736521745512857
-3.178164603077044 17.528606056440573 17.679331060218857
6.155731417406956 12.076282440122572 5.831908891025856
6.147009964156957 12.103929277627572 11.774718205731856
6.138288510906956 12.131576115132573 17.717527520437855
3.055881382611956 17.462884708406573 5.802603206831856
3.047159929361956 17.490531545911573 11.745412521537856
3.038438476111956 17.518178383416572 17.688221836243855
-0.043968652183044 22.849486976690574 5.773297522637856
-0.052690105433044 22.877133814195574 11.716106837343856
-0.061411558683044 22.904780651700573 17.658916152049855
2.121564928382167 5.082768049158548 1.896254253800760
2.112843475132167 5.110414886663548 7.839063568506760
2.104122021882167 5.138061724168548 13.781872883212761
-0.978285106412833 10.469370317442548 1.866948569606760
-0.987006559662833 10.497017154947549 7.809757884312760
-0.995728012912833 10.524663992452549 13.752567199018761
-4.078135141207833 15.855972585726548 1.837642885412760
-4.086856594457833 15.883619423231547 7.780452200118760
-4.095578047707834 15.911266260736550 13.723261514824761
5.238317972776168 10.458942644418549 1.875839345631760
5.229596519526167 10.486589481923549 7.818648660337760
5.220875066276167 10.514236319428548 13.761457975043761
2.138467937981167 15.845544912702550 1.846533661437760
2.129746484731167 15.873191750207550 7.789342976143760
2.121025031481167 15.900838587712549 13.732152290849761
-0.961382096813833 21.232147180986548 1.817227977243760
-0.970103550063834 21.259794018491551 7.760037291949760
-0.978825003313833 21.287440855996550 13.702846606655761
8.355071017170168 15.835117239678549 1.855424437462760
8.346349563920167 15.862764077183549 7.798233752168760
8.337628110670167 15.890410914688548 13.741043066874761
5.255220982375167 21.221719507962550 1.826118753268760
5.246499529125167 21.249366345467550 7.768928067974760
5.237778075875167 21.277013182972549 13.711737382680761
2.155370947580167 26.608321776246552 1.796813069074760
2.146649494330167 26.635968613751551 7.739622383780760
2.137928041080167 26.663615451256550 13.682431698486761
-2.252526509351318 5.102269194974025 3.871260113836954
-2.261247962601318 5.129916032479025 9.814069428542954
-2.269969415851318 5.157562869984025 15.756878743248954
-5.352376544146319 10.488871463258025 3.841954429642954
-5.361097997396318 10.516518300763025 9.784763744348954
-5.369819450646318 10.544165138268024 15.727573059054954
-8.452226578941318 15.875473731542026 3.812648745448954
-8.460948032191318 15.903120569047026 9.755458060154954
-8.469669485441319 15.930767406552025 15.698267374860954
0.864226535042682 10.478443790234024 3.850845205667954
0.855505081792682 10.506090627739026 9.793654520373954
0.846783628542682 10.533737465244025 15.736463835079954
-2.235623499752318 15.865046058518026 3.821539521473954
-2.244344953002318 15.892692896023025 9.764348836179954
-2.253066406252318 15.920339733528024 15.707158150885954
-5.335473534547319 21.251648326802023 3.792233837279954
-5.344194987797318 21.279295164307026 9.735043151985954
-5.352916441047318 21.306942001812025 15.677852466691954
3.980979579436682 15.854618385494025 3.830430297498954
3.972258126186683 15.882265222999024 9.773239612204954
3.963536672936682 15.909912060504027 15.716048926910954
0.881129544641682 21.241220653778026 3.801124613304954
0.872408091391682 21.268867491283025 9.743933928010954
0.863686638141682 21.296514328788025 15.686743242716954
-2.218720490153318 26.627822922062027 3.771818929110954
-2.227441943403318 26.655469759567026 9.714628243816954
-2.236163396653318 26.683116597072026 15.657437558522954
-0.059783512296410 6.347952971993556 2.888144789503635
-0.068504965546410 6.375599809498556 8.830954104209635
-0.077226418796410 6.403246647003556 14.773763418915635
-3.159633547091410 11.734555240277556 2.858839105309635
-3.168355000341410 11.762202077782558 8.801648420015635
-3.177076453591410 11.789848915287557 14.744457734721635
-6.259483581886411 17.121157508561556 2.829533421115635
-6.268205035136410 17.148804346066555 8.772342735821635
-6.276926488386411 17.176451183571558 14.715152050527635
3.056969532097590 11.724127567253557 2.867729881334635
3.048248078847590 11.751774404758557 8.810539196040635
3.039526625597590 11.779421242263556 14.753348510746635
-0.042880502697410 17.110729835537558 2.838424197140635
-0.051601955947410 17.138376673042558 8.781233511846635
-0.060323409197410 17.166023510547557 14.724042826552635
-3.142730537492410 22.497332103821556 2.809118512946635
-3.151451990742411 22.524978941326559 8.751927827652635
-3.160173443992410 22.552625778831558 14.694737142358635
6.173722576491590 17.100302162513557 2.847314973165635
6.165001123241590 17.127949000018557 8.790124287871635
6.156279669991590 17.155595837523556 14.732933602577635
3.073872541696590 22.486904430797559 2.818009288971635
3.065151088446590 22.514551268302558 8.760818603677635
3.056429635196590 22.542198105807557 14.703627918383635
-0.025977493098410 27.873506699081560 2.788703604777635
-0.034698946348410 27.901153536586559 8.731512919483635
-0.043420399598410 27.928800374091558 14.674322234189635
0.860131620387450 7.964741187451218 4.862726180546602
0.851410167137450 7.992388024956218 10.805535495252602
0.842688713887450 8.020034862461218 16.748344809958603
-2.239718414407550 13.351343455735218 4.833420496352602
-2.248439867657551 13.378990293240218 10.776229811058602
-2.257161320907550 13.406637130745217 16.719039125764603
-5.339568449202551 18.737945724019220 4.804114812158602
-5.348289902452550 18.765592561524219 10.746924126864602
-5.357011355702551 18.793239399029218 16.689733441570603
3.976884664781450 13.340915782711217 4.842311272377602
3.968163211531450 13.368562620216219 10.785120587083602
3.959441758281450 13.396209457721218 16.727929901789601
0.877034629986450 18.727518050995219 4.813005588183602
0.868313176736450 18.755164888500218 10.755814902889602
0.859591723486450 18.782811726005217 16.698624217595601
-2.222815404808550 24.114120319279216 4.783699903989602
-2.231536858058551 24.141767156784219 10.726509218695602
-2.240258311308550 24.169413994289219 16.669318533401601
7.093637709175450 18.717090377971218 4.821896364208602
7.084916255925450 18.744737215476217 10.764705678914602
7.076194802675450 18.772384052981220 16.707514993620602
3.993787674380450 24.103692646255219 4.792590680014602
3.985066221130450 24.131339483760218 10.735399994720602
3.976344767880450 24.158986321265218 16.678209309426602
0.893937639585450 29.490294914539220 4.763284995820602
0.885216186335450 29.517941752044219 10.706094310526602
0.876494733085450 29.545588589549219 16.648903625232602
-0.986837028619828 7.941993938213103 0.898546988891357
-0.995558481869828 7.969640775718103 6.841356303597357
-1.004279935119828 7.997287613223103 12.784165618303359
-4.086687063414828 13.328596206497103 0.869241304697357
-4.095408516664828 13.356243044002102 6.812050619403357
-4.104129969914828 13.383889881507102 12.754859934109358
-7.186537098209828 18.715198474781104 0.839935620503357
-7.195258551459828 18.742845312286104 6.782744935209357
-7.203980004709829 18.770492149791103 12.725554249915358
2.129916015774172 13.318168533473102 0.878132080722357
2.121194562524172 13.345815370978103 6.820941395428357
2.112473109274172 13.373462208483103 12.763750710134358
-0.969934019020828 18.704770801757103 0.848826396528357
-0.978655472270828 18.732417639262103 6.791635711234357
-0.987376925520828 18.760064476767102 12.734445025940358
-4.069784053815829 24.091373070041101 0.819520712334357
-4.078505507065828 24.119019907546104 6.762330027040357
-4.087226960315828 24.146666745051103 12.705139341746358
5.246669060168172 18.694343128733102 0.857717172553357
5.237947606918173 18.721989966238102 6.800526487259357
5.229226153668172 18.749636803743105 12.743335801965358
2.146819025373172 24.080945397017103 0.828411488359357
2.138097572123172 24.108592234522103 6.771220803065357
2.129376118873172 24.136239072027102 12.714030117771358
-0.953031009421828 29.467547665301105 0.799105804165357
-0.961752462671828 29.495194502806104 6.741915118871357
-0.970473915921828 29.522841340311103 12.684724433577358
