 # Version information for this restart file 
 # current date 2026-05-23 22:51:51.952
 # current working dir /home/kuehne88/periodic-gfn2-benchmarks/X23b/runs/cellopt_gamma/GFN2/cyanamide_GFN2_gamma_cellopt
 # Program compiled at                                       2026-05-23 22:05:08
 # Program compiled on                                                spark-c86c
 # Program compiled for                                                  aarch64
 # Source code revision number                                        0622d442e4
 &GLOBAL
   PRINT_LEVEL LOW
   PROJECT_NAME "cyanamide_GFN2_gamma_cell_opt"
   RUN_TYPE CELL_OPT
 &END GLOBAL
 &MOTION
   &CELL_OPT
     OPTIMIZER BFGS
     MAX_ITER 800
     STEP_START_VAL 200
     EXTERNAL_PRESSURE  0.0000000000000000E+000
   &END CELL_OPT
 &END MOTION
 &FORCE_EVAL
   METHOD QS
   STRESS_TENSOR ANALYTICAL
   &DFT
     &SCF
       MAX_SCF 300
       EPS_SCF  1.0000000000000001E-009
       SCF_GUESS MOPAC
       &MIXING T
         METHOD DIRECT_P_MIXING
         ALPHA  2.0000000000000001E-001
       &END MIXING
     &END SCF
     &QS
       EPS_DEFAULT  9.9999999999999998E-013
       METHOD XTB
       &XTB
         GFN_TYPE TBLITE
         &TBLITE T
           METHOD GFN2
           ACCURACY  1.0000000000000001E-001
         &END TBLITE
       &END XTB
     &END QS
   &END DFT
   &SUBSYS
     &CELL
       A  6.7408747183129432E+000  0.0000000000000000E+000  0.0000000000000000E+000
       B  7.4252124252795998E-006  7.7379708696011837E+000  0.0000000000000000E+000
       C -2.1331914167516128E-003 -7.6627734778064709E-003  7.8618081144053589E+000
       PERIODIC XYZ
       MULTIPLE_UNIT_CELL 1 1 1
     &END CELL
     &COORD
       N  1.1361438436047229E-001  1.3065604990373647E-001  1.1830285369234926E-001
       N  8.8704635266737530E-001  8.7143609597820315E-001  8.8208969948192595E-001
       N  6.1714242393603946E-001  1.2862901895399406E-001  3.8142949390459419E-001
       N  1.1113078309111762E-001  3.6995913304762618E-001  6.1783712506857602E-001
       N  6.1344405452092354E-001  3.7158818520890424E-001  8.8191013313142463E-001
       N  3.8671453372422010E-001  6.3045060366103134E-001  1.1801267799373538E-001
       N  8.8315376299238424E-001  6.2858402134134217E-001  3.8183325536625429E-001
       N  3.8919993744238324E-001  8.6990242561706521E-001  6.1742895482600979E-001
       N  1.3624707998509994E-001 -8.0503954861834953E-002  3.4811458576870907E-001
       N  8.6947544389831533E-001  1.0845737348650677E+000  6.5335101365125137E-001
       N  6.3116064612024170E-001 -8.3820187912275843E-002  1.5139862650439870E-001
       N  1.3358581974787806E-001  5.8496902399026274E-001  8.4496321976198718E-001
       N  6.3069109901074838E-001  5.8441107725809072E-001  6.5297555638149218E-001
       N  3.6488487222644661E-001  4.1886593791642329E-001  3.4769746126270457E-001
       N  8.6851203012429079E-001  4.1621545636277757E-001  1.5169420238047113E-001
       N  3.6682296538749964E-001  1.0851216575061093E+000  8.4443760778191446E-001
       C  1.2713898063031892E-001  2.3837470299083962E-002  2.4203564571199984E-001
       C  8.7705573178755147E-001  9.8096722102881229E-001  7.6082569654471466E-001
       C  6.2538579926604154E-001  1.7671897086830434E-002  2.6065729554487943E-001
       C  1.2332336754684796E-001  4.7879923987533851E-001  7.4003146685547083E-001
       C  6.2355874128074273E-001  4.8110516764345429E-001  7.6063959434240114E-001
       C  3.7327907250893011E-001  5.2345484079114069E-001  2.4157626717744077E-001
       C  8.7452807289232903E-001  5.1809598659112688E-001  2.6064133570323650E-001
       C  3.7716761102332758E-001  9.7876760279442399E-001  7.3957520990785275E-001
       H  2.0895741980117252E-001  1.1699906247752564E-001  1.7390437074720027E-002
       H  7.9180223491856838E-001  8.8296992224619264E-001  9.8332122913471298E-001
       H  7.0965654336089190E-001  1.1696696192530107E-001  4.8484218143929714E-001
       H  2.0837713777702652E-001  3.8357248650298681E-001  5.1771893320479545E-001
       H  7.0798999967090459E-001  3.8341118495690835E-001  9.8371811646447460E-001
       H  2.9057958398584710E-001  6.1774770105728427E-001  1.7412277558883346E-002
       H  7.8927569216457338E-001  6.1785198102957573E-001  4.8434037170540556E-001
       H  2.9121695759473815E-001  8.8276123969577114E-001  5.1764698458656511E-001
       H  3.0778991655307751E-002  2.4100057750454215E-001  1.2802487473928933E-001
       H  9.6618420625659596E-001  7.5938000457070942E-001  8.6790324340207869E-001
       H  5.2752374170979510E-001  2.3450580213743186E-001  3.7146183812646766E-001
       H  3.2090193660610056E-002  2.5676752589689145E-001  6.2924284897925897E-001
       H  5.3299972804511420E-001  2.6014432245521535E-001  8.6807889508588310E-001
       H  4.6867458802147322E-001  7.4131159269455860E-001  1.2827740805722171E-001
       H  9.7217648777255528E-001  7.3448666379393779E-001  3.7187476213404158E-001
       H  4.6745292743333178E-001  7.5638526610834755E-001  6.2928661956111043E-001
       SCALED T
     &END COORD
     &TOPOLOGY
       NUMBER_OF_ATOMS 40
       MULTIPLE_UNIT_CELL 1 1 1
     &END TOPOLOGY
   &END SUBSYS
 &END FORCE_EVAL
