&GLOBAL
  PRINT_LEVEL LOW
  PROJECT ammonia_GFN2_mol_geoopt
  RUN_TYPE GEO_OPT
&END GLOBAL

&FORCE_EVAL
  METHOD Quickstep
  &DFT
    &QS
      EPS_DEFAULT 1.0E-12
      METHOD xTB
      &XTB
        GFN_TYPE TBLITE
        &TBLITE
          METHOD GFN2
          ACCURACY 0.1
        &END TBLITE
      &END XTB
    &END QS
    &POISSON
      PERIODIC NONE
    &END POISSON
    &SCF
      EPS_SCF 1.0E-9
      MAX_SCF 300
      SCF_GUESS MOPAC
      &MIXING
        METHOD DIRECT_P_MIXING
        ALPHA 0.2
      &END MIXING
    &END SCF
  &END DFT
  &SUBSYS
    &CELL
      ABC 30.0 30.0 30.0
      PERIODIC NONE
    &END CELL
    &COORD
      N  -0.294110000000  0.939390000000  0.000000000000
      H   0.067700000000 -0.009850000000  0.000000000000
      H   0.067710000000  1.414010000000  0.822060000000
      H   0.067710000000  1.414010000000 -0.822060000000
    &END COORD
  &END SUBSYS
&END FORCE_EVAL

&MOTION
  &GEO_OPT
    OPTIMIZER BFGS
    MAX_ITER 200
  &END GEO_OPT
&END MOTION
