DMC-ICE13 ice XI; Cartesian 3x3x3 supercell
1.0
13.236519978621001 0.000000000000000 0.000000000000000
0.000000000000000 22.990464284925000 0.000372909741000
0.000000000000000 0.000351063849000 21.598776339021001
H O
432 216
Cartesian
0.000000000000000 4.143819585155801 0.143256839167901
0.000000000000000 4.143936606438801 7.342848952174901
0.000000000000000 4.144053627721801 14.542441065181901
0.000000000000000 11.807307680130801 0.143381142414901
0.000000000000000 11.807424701413801 7.342973255421901
0.000000000000000 11.807541722696801 14.542565368428901
0.000000000000000 19.470795775105803 0.143505445661901
0.000000000000000 19.470912796388802 7.343097558668901
0.000000000000000 19.471029817671802 14.542689671675902
4.412173326207000 4.143819585155801 0.143256839167901
4.412173326207000 4.143936606438801 7.342848952174901
4.412173326207000 4.144053627721801 14.542441065181901
4.412173326207000 11.807307680130801 0.143381142414901
4.412173326207000 11.807424701413801 7.342973255421901
4.412173326207000 11.807541722696801 14.542565368428901
4.412173326207000 19.470795775105803 0.143505445661901
4.412173326207000 19.470912796388802 7.343097558668901
4.412173326207000 19.471029817671802 14.542689671675902
8.824346652414000 4.143819585155801 0.143256839167901
8.824346652414000 4.143936606438801 7.342848952174901
8.824346652414000 4.144053627721801 14.542441065181901
8.824346652414000 11.807307680130801 0.143381142414901
8.824346652414000 11.807424701413801 7.342973255421901
8.824346652414000 11.807541722696801 14.542565368428901
8.824346652414000 19.470795775105803 0.143505445661901
8.824346652414000 19.470912796388802 7.343097558668901
8.824346652414000 19.471029817671802 14.542689671675902
0.000000000000000 5.091008737909317 1.439410046069054
0.000000000000000 5.091125759192317 8.639002159076055
0.000000000000000 5.091242780475318 15.838594272083055
0.000000000000000 12.754496832884318 1.439534349316054
0.000000000000000 12.754613854167317 8.639126462323055
0.000000000000000 12.754730875450317 15.838718575330056
0.000000000000000 20.417984927859319 1.439658652563054
0.000000000000000 20.418101949142319 8.639250765570054
0.000000000000000 20.418218970425318 15.838842878577056
4.412173326207000 5.091008737909317 1.439410046069054
4.412173326207000 5.091125759192317 8.639002159076055
4.412173326207000 5.091242780475318 15.838594272083055
4.412173326207000 12.754496832884318 1.439534349316054
4.412173326207000 12.754613854167317 8.639126462323055
4.412173326207000 12.754730875450317 15.838718575330056
4.412173326207000 20.417984927859319 1.439658652563054
4.412173326207000 20.418101949142319 8.639250765570054
4.412173326207000 20.418218970425318 15.838842878577056
8.824346652414000 5.091008737909317 1.439410046069054
8.824346652414000 5.091125759192317 8.639002159076055
8.824346652414000 5.091242780475318 15.838594272083055
8.824346652414000 12.754496832884318 1.439534349316054
8.824346652414000 12.754613854167317 8.639126462323055
8.824346652414000 12.754730875450317 15.838718575330056
8.824346652414000 20.417984927859319 1.439658652563054
8.824346652414000 20.418101949142319 8.639250765570054
8.824346652414000 20.418218970425318 15.838842878577056
0.000000000000000 3.519747177079960 3.743027963746334
0.000000000000000 3.519864198362960 10.942620076753334
0.000000000000000 3.519981219645960 18.142212189760333
0.000000000000000 11.183235272054960 3.743152266993333
0.000000000000000 11.183352293337959 10.942744380000335
0.000000000000000 11.183469314620961 18.142336493007335
0.000000000000000 18.846723367029959 3.743276570240333
0.000000000000000 18.846840388312959 10.942868683247333
0.000000000000000 18.846957409595959 18.142460796254333
4.412173326207000 3.519747177079960 3.743027963746334
4.412173326207000 3.519864198362960 10.942620076753334
4.412173326207000 3.519981219645960 18.142212189760333
4.412173326207000 11.183235272054960 3.743152266993333
4.412173326207000 11.183352293337959 10.942744380000335
4.412173326207000 11.183469314620961 18.142336493007335
4.412173326207000 18.846723367029959 3.743276570240333
4.412173326207000 18.846840388312959 10.942868683247333
4.412173326207000 18.846957409595959 18.142460796254333
8.824346652414000 3.519747177079960 3.743027963746334
8.824346652414000 3.519864198362960 10.942620076753334
8.824346652414000 3.519981219645960 18.142212189760333
8.824346652414000 11.183235272054960 3.743152266993333
8.824346652414000 11.183352293337959 10.942744380000335
8.824346652414000 11.183469314620961 18.142336493007335
8.824346652414000 18.846723367029959 3.743276570240333
8.824346652414000 18.846840388312959 10.942868683247333
8.824346652414000 18.846957409595959 18.142460796254333
0.000000000000000 2.572532211461262 5.039116197894220
0.000000000000000 2.572649232744262 12.238708310901220
0.000000000000000 2.572766254027262 19.438300423908220
0.000000000000000 10.236020306436263 5.039240501141220
0.000000000000000 10.236137327719263 12.238832614148221
0.000000000000000 10.236254349002262 19.438424727155223
0.000000000000000 17.899508401411261 5.039364804388220
0.000000000000000 17.899625422694264 12.238956917395221
0.000000000000000 17.899742443977260 19.438549030402221
4.412173326207000 2.572532211461262 5.039116197894220
4.412173326207000 2.572649232744262 12.238708310901220
4.412173326207000 2.572766254027262 19.438300423908220
4.412173326207000 10.236020306436263 5.039240501141220
4.412173326207000 10.236137327719263 12.238832614148221
4.412173326207000 10.236254349002262 19.438424727155223
4.412173326207000 17.899508401411261 5.039364804388220
4.412173326207000 17.899625422694264 12.238956917395221
4.412173326207000 17.899742443977260 19.438549030402221
8.824346652414000 2.572532211461262 5.039116197894220
8.824346652414000 2.572649232744262 12.238708310901220
8.824346652414000 2.572766254027262 19.438300423908220
8.824346652414000 10.236020306436263 5.039240501141220
8.824346652414000 10.236137327719263 12.238832614148221
8.824346652414000 10.236254349002262 19.438424727155223
8.824346652414000 17.899508401411261 5.039364804388220
8.824346652414000 17.899625422694264 12.238956917395221
8.824346652414000 17.899742443977260 19.438549030402221
2.206082624694201 1.259266420629354 1.439369040014030
2.206082624694201 1.259383441912354 8.638961153021031
2.206082624694201 1.259500463195354 15.838553266028031
2.206082624694201 8.922754515604353 1.439493343261030
2.206082624694201 8.922871536887353 8.639085456268031
2.206082624694201 8.922988558170355 15.838677569275031
2.206082624694201 16.586242610579355 1.439617646508030
2.206082624694201 16.586359631862354 8.639209759515030
2.206082624694201 16.586476653145354 15.838801872522032
6.618255950901201 1.259266420629354 1.439369040014030
6.618255950901201 1.259383441912354 8.638961153021031
6.618255950901201 1.259500463195354 15.838553266028031
6.618255950901201 8.922754515604353 1.439493343261030
6.618255950901201 8.922871536887353 8.639085456268031
6.618255950901201 8.922988558170355 15.838677569275031
6.618255950901201 16.586242610579355 1.439617646508030
6.618255950901201 16.586359631862354 8.639209759515030
6.618255950901201 16.586476653145354 15.838801872522032
11.030429277108201 1.259266420629354 1.439369040014030
11.030429277108201 1.259383441912354 8.638961153021031
11.030429277108201 1.259500463195354 15.838553266028031
11.030429277108201 8.922754515604353 1.439493343261030
11.030429277108201 8.922871536887353 8.639085456268031
11.030429277108201 8.922988558170355 15.838677569275031
11.030429277108201 16.586242610579355 1.439617646508030
11.030429277108201 16.586359631862354 8.639209759515030
11.030429277108201 16.586476653145354 15.838801872522032
2.206082624694201 0.312102005642591 0.143229293101182
2.206082624694201 0.312219026925591 7.342821406108182
2.206082624694201 0.312336048208591 14.542413519115183
2.206082624694201 7.975590100617592 0.143353596348182
2.206082624694201 7.975707121900592 7.342945709355183
2.206082624694201 7.975824143183592 14.542537822362183
2.206082624694201 15.639078195592592 0.143477899595182
2.206082624694201 15.639195216875592 7.343070012602182
2.206082624694201 15.639312238158592 14.542662125609183
6.618255950901201 0.312102005642591 0.143229293101182
6.618255950901201 0.312219026925591 7.342821406108182
6.618255950901201 0.312336048208591 14.542413519115183
6.618255950901201 7.975590100617592 0.143353596348182
6.618255950901201 7.975707121900592 7.342945709355183
6.618255950901201 7.975824143183592 14.542537822362183
6.618255950901201 15.639078195592592 0.143477899595182
6.618255950901201 15.639195216875592 7.343070012602182
6.618255950901201 15.639312238158592 14.542662125609183
11.030429277108201 0.312102005642591 0.143229293101182
11.030429277108201 0.312219026925591 7.342821406108182
11.030429277108201 0.312336048208591 14.542413519115183
11.030429277108201 7.975590100617592 0.143353596348182
11.030429277108201 7.975707121900592 7.342945709355183
11.030429277108201 7.975824143183592 14.542537822362183
11.030429277108201 15.639078195592592 0.143477899595182
11.030429277108201 15.639195216875592 7.343070012602182
11.030429277108201 15.639312238158592 14.542662125609183
2.206082624694201 6.404225698282535 5.039269416201437
2.206082624694201 6.404342719565535 12.238861529208437
2.206082624694201 6.404459740848536 19.438453642215435
2.206082624694201 14.067713793257536 5.039393719448437
2.206082624694201 14.067830814540535 12.238985832455437
2.206082624694201 14.067947835823535 19.438577945462438
2.206082624694201 21.731201888232537 5.039518022695437
2.206082624694201 21.731318909515537 12.239110135702436
2.206082624694201 21.731435930798536 19.438702248709440
6.618255950901201 6.404225698282535 5.039269416201437
6.618255950901201 6.404342719565535 12.238861529208437
6.618255950901201 6.404459740848536 19.438453642215435
6.618255950901201 14.067713793257536 5.039393719448437
6.618255950901201 14.067830814540535 12.238985832455437
6.618255950901201 14.067947835823535 19.438577945462438
6.618255950901201 21.731201888232537 5.039518022695437
6.618255950901201 21.731318909515537 12.239110135702436
6.618255950901201 21.731435930798536 19.438702248709440
11.030429277108201 6.404225698282535 5.039269416201437
11.030429277108201 6.404342719565535 12.238861529208437
11.030429277108201 6.404459740848536 19.438453642215435
11.030429277108201 14.067713793257536 5.039393719448437
11.030429277108201 14.067830814540535 12.238985832455437
11.030429277108201 14.067947835823535 19.438577945462438
11.030429277108201 21.731201888232537 5.039518022695437
11.030429277108201 21.731318909515537 12.239110135702436
11.030429277108201 21.731435930798536 19.438702248709440
2.206082624694201 7.351446144936878 3.743164311381458
2.206082624694201 7.351563166219877 10.942756424388458
2.206082624694201 7.351680187502878 18.142348537395460
2.206082624694201 15.014934239911877 3.743288614628458
2.206082624694201 15.015051261194877 10.942880727635458
2.206082624694201 15.015168282477878 18.142472840642458
2.206082624694201 22.678422334886879 3.743412917875458
2.206082624694201 22.678539356169878 10.943005030882459
2.206082624694201 22.678656377452878 18.142597143889461
6.618255950901201 7.351446144936878 3.743164311381458
6.618255950901201 7.351563166219877 10.942756424388458
6.618255950901201 7.351680187502878 18.142348537395460
6.618255950901201 15.014934239911877 3.743288614628458
6.618255950901201 15.015051261194877 10.942880727635458
6.618255950901201 15.015168282477878 18.142472840642458
6.618255950901201 22.678422334886879 3.743412917875458
6.618255950901201 22.678539356169878 10.943005030882459
6.618255950901201 22.678656377452878 18.142597143889461
11.030429277108201 7.351446144936878 3.743164311381458
11.030429277108201 7.351563166219877 10.942756424388458
11.030429277108201 7.351680187502878 18.142348537395460
11.030429277108201 15.014934239911877 3.743288614628458
11.030429277108201 15.015051261194877 10.942880727635458
11.030429277108201 15.015168282477878 18.142472840642458
11.030429277108201 22.678422334886879 3.743412917875458
11.030429277108201 22.678539356169878 10.943005030882459
11.030429277108201 22.678656377452878 18.142597143889461
1.405062488307225 5.886544803098435 7.082481702953350
1.405062488307225 5.886661824381434 14.282073815960350
1.405062488307225 5.886778845664435 21.481665928967352
1.405062488307225 13.550032898073436 7.082606006200351
1.405062488307225 13.550149919356436 14.282198119207351
1.405062488307225 13.550266940639435 21.481790232214351
1.405062488307225 21.213520993048434 7.082730309447350
1.405062488307225 21.213638014331437 14.282322422454349
1.405062488307225 21.213755035614433 21.481914535461350
5.817235814514225 5.886544803098435 7.082481702953350
5.817235814514225 5.886661824381434 14.282073815960350
5.817235814514225 5.886778845664435 21.481665928967352
5.817235814514225 13.550032898073436 7.082606006200351
5.817235814514225 13.550149919356436 14.282198119207351
5.817235814514225 13.550266940639435 21.481790232214351
5.817235814514225 21.213520993048434 7.082730309447350
5.817235814514225 21.213638014331437 14.282322422454349
5.817235814514225 21.213755035614433 21.481914535461350
10.229409140721225 5.886544803098435 7.082481702953350
10.229409140721225 5.886661824381434 14.282073815960350
10.229409140721225 5.886778845664435 21.481665928967352
10.229409140721225 13.550032898073436 7.082606006200351
10.229409140721225 13.550149919356436 14.282198119207351
10.229409140721225 13.550266940639435 21.481790232214351
10.229409140721225 21.213520993048434 7.082730309447350
10.229409140721225 21.213638014331437 14.282322422454349
10.229409140721225 21.213755035614433 21.481914535461350
3.007105789888151 5.886544803098435 7.082481702953350
3.007105789888151 5.886661824381434 14.282073815960350
3.007105789888151 5.886778845664435 21.481665928967352
3.007105789888151 13.550032898073436 7.082606006200351
3.007105789888151 13.550149919356436 14.282198119207351
3.007105789888151 13.550266940639435 21.481790232214351
3.007105789888151 21.213520993048434 7.082730309447350
3.007105789888151 21.213638014331437 14.282322422454349
3.007105789888151 21.213755035614433 21.481914535461350
7.419279116095151 5.886544803098435 7.082481702953350
7.419279116095151 5.886661824381434 14.282073815960350
7.419279116095151 5.886778845664435 21.481665928967352
7.419279116095151 13.550032898073436 7.082606006200351
7.419279116095151 13.550149919356436 14.282198119207351
7.419279116095151 13.550266940639435 21.481790232214351
7.419279116095151 21.213520993048434 7.082730309447350
7.419279116095151 21.213638014331437 14.282322422454349
7.419279116095151 21.213755035614433 21.481914535461350
11.831452442302151 5.886544803098435 7.082481702953350
11.831452442302151 5.886661824381434 14.282073815960350
11.831452442302151 5.886778845664435 21.481665928967352
11.831452442302151 13.550032898073436 7.082606006200351
11.831452442302151 13.550149919356436 14.282198119207351
11.831452442302151 13.550266940639435 21.481790232214351
11.831452442302151 21.213520993048434 7.082730309447350
11.831452442302151 21.213638014331437 14.282322422454349
11.831452442302151 21.213755035614433 21.481914535461350
1.405086602471369 1.777113160663646 3.482607316525991
1.405086602471369 1.777230181946646 10.682199429532991
1.405086602471369 1.777347203229646 17.881791542539993
1.405086602471369 9.440601255638647 3.482731619772991
1.405086602471369 9.440718276921647 10.682323732779992
1.405086602471369 9.440835298204647 17.881915845786992
1.405086602471369 17.104089350613648 3.482855923019991
1.405086602471369 17.104206371896648 10.682448036026992
1.405086602471369 17.104323393179648 17.882040149033994
5.817259928678370 1.777113160663646 3.482607316525991
5.817259928678370 1.777230181946646 10.682199429532991
5.817259928678370 1.777347203229646 17.881791542539993
5.817259928678370 9.440601255638647 3.482731619772991
5.817259928678370 9.440718276921647 10.682323732779992
5.817259928678370 9.440835298204647 17.881915845786992
5.817259928678370 17.104089350613648 3.482855923019991
5.817259928678370 17.104206371896648 10.682448036026992
5.817259928678370 17.104323393179648 17.882040149033994
10.229433254885370 1.777113160663646 3.482607316525991
10.229433254885370 1.777230181946646 10.682199429532991
10.229433254885370 1.777347203229646 17.881791542539993
10.229433254885370 9.440601255638647 3.482731619772991
10.229433254885370 9.440718276921647 10.682323732779992
10.229433254885370 9.440835298204647 17.881915845786992
10.229433254885370 17.104089350613648 3.482855923019991
10.229433254885370 17.104206371896648 10.682448036026992
10.229433254885370 17.104323393179648 17.882040149033994
3.007082685321919 1.777113160663646 3.482607316525991
3.007082685321919 1.777230181946646 10.682199429532991
3.007082685321919 1.777347203229646 17.881791542539993
3.007082685321919 9.440601255638647 3.482731619772991
3.007082685321919 9.440718276921647 10.682323732779992
3.007082685321919 9.440835298204647 17.881915845786992
3.007082685321919 17.104089350613648 3.482855923019991
3.007082685321919 17.104206371896648 10.682448036026992
3.007082685321919 17.104323393179648 17.882040149033994
7.419256011528919 1.777113160663646 3.482607316525991
7.419256011528919 1.777230181946646 10.682199429532991
7.419256011528919 1.777347203229646 17.881791542539993
7.419256011528919 9.440601255638647 3.482731619772991
7.419256011528919 9.440718276921647 10.682323732779992
7.419256011528919 9.440835298204647 17.881915845786992
7.419256011528919 17.104089350613648 3.482855923019991
7.419256011528919 17.104206371896648 10.682448036026992
7.419256011528919 17.104323393179648 17.882040149033994
11.831429337735919 1.777113160663646 3.482607316525991
11.831429337735919 1.777230181946646 10.682199429532991
11.831429337735919 1.777347203229646 17.881791542539993
11.831429337735919 9.440601255638647 3.482731619772991
11.831429337735919 9.440718276921647 10.682323732779992
11.831429337735919 9.440835298204647 17.881915845786992
11.831429337735919 17.104089350613648 3.482855923019991
11.831429337735919 17.104206371896648 10.682448036026992
11.831429337735919 17.104323393179648 17.882040149033994
0.801008542369112 2.054814580043319 7.082395381868206
0.801008542369112 2.054931601326319 14.281987494875207
0.801008542369112 2.055048622609319 21.481579607882207
0.801008542369112 9.718302675018320 7.082519685115207
0.801008542369112 9.718419696301320 14.282111798122207
0.801008542369112 9.718536717584319 21.481703911129209
0.801008542369112 17.381790769993319 7.082643988362206
0.801008542369112 17.381907791276319 14.282236101369207
0.801008542369112 17.382024812559319 21.481828214376208
5.213181868576113 2.054814580043319 7.082395381868206
5.213181868576113 2.054931601326319 14.281987494875207
5.213181868576113 2.055048622609319 21.481579607882207
5.213181868576113 9.718302675018320 7.082519685115207
5.213181868576113 9.718419696301320 14.282111798122207
5.213181868576113 9.718536717584319 21.481703911129209
5.213181868576113 17.381790769993319 7.082643988362206
5.213181868576113 17.381907791276319 14.282236101369207
5.213181868576113 17.382024812559319 21.481828214376208
9.625355194783113 2.054814580043319 7.082395381868206
9.625355194783113 2.054931601326319 14.281987494875207
9.625355194783113 2.055048622609319 21.481579607882207
9.625355194783113 9.718302675018320 7.082519685115207
9.625355194783113 9.718419696301320 14.282111798122207
9.625355194783113 9.718536717584319 21.481703911129209
9.625355194783113 17.381790769993319 7.082643988362206
9.625355194783113 17.381907791276319 14.282236101369207
9.625355194783113 17.382024812559319 21.481828214376208
3.611159735821851 2.054814580043319 7.082395381868206
3.611159735821851 2.054931601326319 14.281987494875207
3.611159735821851 2.055048622609319 21.481579607882207
3.611159735821851 9.718302675018320 7.082519685115207
3.611159735821851 9.718419696301320 14.282111798122207
3.611159735821851 9.718536717584319 21.481703911129209
3.611159735821851 17.381790769993319 7.082643988362206
3.611159735821851 17.381907791276319 14.282236101369207
3.611159735821851 17.382024812559319 21.481828214376208
8.023333062028851 2.054814580043319 7.082395381868206
8.023333062028851 2.054931601326319 14.281987494875207
8.023333062028851 2.055048622609319 21.481579607882207
8.023333062028851 9.718302675018320 7.082519685115207
8.023333062028851 9.718419696301320 14.282111798122207
8.023333062028851 9.718536717584319 21.481703911129209
8.023333062028851 17.381790769993319 7.082643988362206
8.023333062028851 17.381907791276319 14.282236101369207
8.023333062028851 17.382024812559319 21.481828214376208
12.435506388235851 2.054814580043319 7.082395381868206
12.435506388235851 2.054931601326319 14.281987494875207
12.435506388235851 2.055048622609319 21.481579607882207
12.435506388235851 9.718302675018320 7.082519685115207
12.435506388235851 9.718419696301320 14.282111798122207
12.435506388235851 9.718536717584319 21.481703911129209
12.435506388235851 17.381790769993319 7.082643988362206
12.435506388235851 17.381907791276319 14.282236101369207
12.435506388235851 17.382024812559319 21.481828214376208
0.801005669263323 5.608885328000487 3.482650008230518
0.801005669263323 5.609002349283487 10.682242121237518
0.801005669263323 5.609119370566487 17.881834234244518
0.801005669263323 13.272373422975488 3.482774311477518
0.801005669263323 13.272490444258487 10.682366424484519
0.801005669263323 13.272607465541487 17.881958537491517
0.801005669263323 20.935861517950489 3.482898614724518
0.801005669263323 20.935978539233489 10.682490727731517
0.801005669263323 20.936095560516488 17.882082840738519
5.213178995470322 5.608885328000487 3.482650008230518
5.213178995470322 5.609002349283487 10.682242121237518
5.213178995470322 5.609119370566487 17.881834234244518
5.213178995470322 13.272373422975488 3.482774311477518
5.213178995470322 13.272490444258487 10.682366424484519
5.213178995470322 13.272607465541487 17.881958537491517
5.213178995470322 20.935861517950489 3.482898614724518
5.213178995470322 20.935978539233489 10.682490727731517
5.213178995470322 20.936095560516488 17.882082840738519
9.625352321677322 5.608885328000487 3.482650008230518
9.625352321677322 5.609002349283487 10.682242121237518
9.625352321677322 5.609119370566487 17.881834234244518
9.625352321677322 13.272373422975488 3.482774311477518
9.625352321677322 13.272490444258487 10.682366424484519
9.625352321677322 13.272607465541487 17.881958537491517
9.625352321677322 20.935861517950489 3.482898614724518
9.625352321677322 20.935978539233489 10.682490727731517
9.625352321677322 20.936095560516488 17.882082840738519
3.611162608932054 5.608885328000487 3.482650008230518
3.611162608932054 5.609002349283487 10.682242121237518
3.611162608932054 5.609119370566487 17.881834234244518
3.611162608932054 13.272373422975488 3.482774311477518
3.611162608932054 13.272490444258487 10.682366424484519
3.611162608932054 13.272607465541487 17.881958537491517
3.611162608932054 20.935861517950489 3.482898614724518
3.611162608932054 20.935978539233489 10.682490727731517
3.611162608932054 20.936095560516488 17.882082840738519
8.023335935139054 5.608885328000487 3.482650008230518
8.023335935139054 5.609002349283487 10.682242121237518
8.023335935139054 5.609119370566487 17.881834234244518
8.023335935139054 13.272373422975488 3.482774311477518
8.023335935139054 13.272490444258487 10.682366424484519
8.023335935139054 13.272607465541487 17.881958537491517
8.023335935139054 20.935861517950489 3.482898614724518
8.023335935139054 20.935978539233489 10.682490727731517
8.023335935139054 20.936095560516488 17.882082840738519
12.435509261346054 5.608885328000487 3.482650008230518
12.435509261346054 5.609002349283487 10.682242121237518
12.435509261346054 5.609119370566487 17.881834234244518
12.435509261346054 13.272373422975488 3.482774311477518
12.435509261346054 13.272490444258487 10.682366424484519
12.435509261346054 13.272607465541487 17.881958537491517
12.435509261346054 20.935861517950489 3.482898614724518
12.435509261346054 20.935978539233489 10.682490727731517
12.435509261346054 20.936095560516488 17.882082840738519
0.000000000000000 5.101543673558890 0.437632566096773
0.000000000000000 5.101660694841890 7.637224679103773
0.000000000000000 5.101777716124890 14.836816792110774
0.000000000000000 12.765031768533891 0.437756869343773
0.000000000000000 12.765148789816891 7.637348982350773
0.000000000000000 12.765265811099891 14.836941095357775
0.000000000000000 20.428519863508889 0.437881172590773
0.000000000000000 20.428636884791892 7.637473285597773
0.000000000000000 20.428753906074888 14.837065398604775
4.412173326207000 5.101543673558890 0.437632566096773
4.412173326207000 5.101660694841890 7.637224679103773
4.412173326207000 5.101777716124890 14.836816792110774
4.412173326207000 12.765031768533891 0.437756869343773
4.412173326207000 12.765148789816891 7.637348982350773
4.412173326207000 12.765265811099891 14.836941095357775
4.412173326207000 20.428519863508889 0.437881172590773
4.412173326207000 20.428636884791892 7.637473285597773
4.412173326207000 20.428753906074888 14.837065398604775
8.824346652414000 5.101543673558890 0.437632566096773
8.824346652414000 5.101660694841890 7.637224679103773
8.824346652414000 5.101777716124890 14.836816792110774
8.824346652414000 12.765031768533891 0.437756869343773
8.824346652414000 12.765148789816891 7.637348982350773
8.824346652414000 12.765265811099891 14.836941095357775
8.824346652414000 20.428519863508889 0.437881172590773
8.824346652414000 20.428636884791892 7.637473285597773
8.824346652414000 20.428753906074888 14.837065398604775
0.000000000000000 2.562009026098923 4.037343522904401
0.000000000000000 2.562126047381923 11.236935635911401
0.000000000000000 2.562243068664923 18.436527748918401
0.000000000000000 10.225497121073923 4.037467826151402
0.000000000000000 10.225614142356923 11.237059939158403
0.000000000000000 10.225731163639924 18.436652052165403
0.000000000000000 17.888985216048923 4.037592129398401
0.000000000000000 17.889102237331922 11.237184242405402
0.000000000000000 17.889219258614922 18.436776355412402
4.412173326207000 2.562009026098923 4.037343522904401
4.412173326207000 2.562126047381923 11.236935635911401
4.412173326207000 2.562243068664923 18.436527748918401
4.412173326207000 10.225497121073923 4.037467826151402
4.412173326207000 10.225614142356923 11.237059939158403
4.412173326207000 10.225731163639924 18.436652052165403
4.412173326207000 17.888985216048923 4.037592129398401
4.412173326207000 17.889102237331922 11.237184242405402
4.412173326207000 17.889219258614922 18.436776355412402
8.824346652414000 2.562009026098923 4.037343522904401
8.824346652414000 2.562126047381923 11.236935635911401
8.824346652414000 2.562243068664923 18.436527748918401
8.824346652414000 10.225497121073923 4.037467826151402
8.824346652414000 10.225614142356923 11.237059939158403
8.824346652414000 10.225731163639924 18.436652052165403
8.824346652414000 17.888985216048923 4.037592129398401
8.824346652414000 17.889102237331922 11.237184242405402
8.824346652414000 17.889219258614922 18.436776355412402
2.206082624694201 1.269815825782048 0.437583213551726
2.206082624694201 1.269932847065048 7.637175326558726
2.206082624694201 1.270049868348048 14.836767439565726
2.206082624694201 8.933303920757048 0.437707516798726
2.206082624694201 8.933420942040048 7.637299629805726
2.206082624694201 8.933537963323049 14.836891742812726
2.206082624694201 16.596792015732049 0.437831820045726
2.206082624694201 16.596909037015049 7.637423933052726
2.206082624694201 16.597026058298049 14.837016046059727
6.618255950901201 1.269815825782048 0.437583213551726
6.618255950901201 1.269932847065048 7.637175326558726
6.618255950901201 1.270049868348048 14.836767439565726
6.618255950901201 8.933303920757048 0.437707516798726
6.618255950901201 8.933420942040048 7.637299629805726
6.618255950901201 8.933537963323049 14.836891742812726
6.618255950901201 16.596792015732049 0.437831820045726
6.618255950901201 16.596909037015049 7.637423933052726
6.618255950901201 16.597026058298049 14.837016046059727
11.030429277108201 1.269815825782048 0.437583213551726
11.030429277108201 1.269932847065048 7.637175326558726
11.030429277108201 1.270049868348048 14.836767439565726
11.030429277108201 8.933303920757048 0.437707516798726
11.030429277108201 8.933420942040048 7.637299629805726
11.030429277108201 8.933537963323049 14.836891742812726
11.030429277108201 16.596792015732049 0.437831820045726
11.030429277108201 16.596909037015049 7.637423933052726
11.030429277108201 16.597026058298049 14.837016046059727
2.206082624694201 6.393703982141244 4.037495332923237
2.206082624694201 6.393821003424244 11.237087445930237
2.206082624694201 6.393938024707245 18.436679558937236
2.206082624694201 14.057192077116245 4.037619636170238
2.206082624694201 14.057309098399244 11.237211749177238
2.206082624694201 14.057426119682244 18.436803862184238
2.206082624694201 21.720680172091246 4.037743939417237
2.206082624694201 21.720797193374246 11.237336052424236
2.206082624694201 21.720914214657245 18.436928165431240
6.618255950901201 6.393703982141244 4.037495332923237
6.618255950901201 6.393821003424244 11.237087445930237
6.618255950901201 6.393938024707245 18.436679558937236
6.618255950901201 14.057192077116245 4.037619636170238
6.618255950901201 14.057309098399244 11.237211749177238
6.618255950901201 14.057426119682244 18.436803862184238
6.618255950901201 21.720680172091246 4.037743939417237
6.618255950901201 21.720797193374246 11.237336052424236
6.618255950901201 21.720914214657245 18.436928165431240
11.030429277108201 6.393703982141244 4.037495332923237
11.030429277108201 6.393821003424244 11.237087445930237
11.030429277108201 6.393938024707245 18.436679558937236
11.030429277108201 14.057192077116245 4.037619636170238
11.030429277108201 14.057309098399244 11.237211749177238
11.030429277108201 14.057426119682244 18.436803862184238
11.030429277108201 21.720680172091246 4.037743939417237