DMC-ICE13 ice XV; Cartesian 1x1x1 supercell
1.0
6.258463000000000 0.000000000000000 0.001092000000000
0.008756000000000 6.270002000000000 -0.006567000000000
0.000000000000000 0.000000000000000 5.814608000000000
H O
20 10
Cartesian
1.548649983714000 2.289773380390000 2.039897789643000
1.570347992956000 0.752538180044000 2.014933428086000
1.598591506910000 4.225084737714000 3.635332119153000
4.258092865206000 1.575620152590000 5.074489214719000
2.312588064657000 2.862550603094000 4.069647936327000
2.359427728829000 6.520457229889999 4.072342218685000
0.828187406423000 6.479438876806000 4.092666838135000
6.516002839667000 2.266116662844000 4.516422611666000
2.873979380036000 1.554596835884000 5.881994374806000
6.564776224742000 1.531987208672000 5.887302102120000
3.393239619964000 4.715405164116000 -0.072861374806000
-0.297557224742000 4.738014791328000 -0.078169102120000
4.718569016286000 3.980228619610000 3.769235210357000
4.696871007044000 5.517463819956000 3.794199571914000
4.668627493090000 2.044917262286000 2.173800880847000
2.009126134794000 4.694381847410000 0.734643785281000
3.954630935343000 3.407451396906000 1.739490878281000
3.907791271171000 -0.250455229890000 1.736790781315000
5.439031593577000 -0.209436876806000 1.716466161865000
-0.248783839667000 4.003885337155999 1.292710388334000
1.598753988620000 6.053392240906000 3.641225809621000
6.082081053585000 1.532921438970000 5.021817163097000
1.574067367819000 1.529171977774000 1.403836654507000
1.533545232907000 3.237659742746000 3.590198849361000
3.272038413580000 1.569481820632000 4.978551186475999
4.693151632180999 4.740830022226000 4.405296345492999
4.733673767093000 3.032342257254000 2.218939965247000
2.995180586420000 4.700520179368000 0.830581813524000
0.185137946415000 4.737080561030000 0.787321651511000
4.668465011379999 0.216609759094000 2.167913004987000
