DMC-ICE13 ice XIII; Cartesian 4x4x4 supercell
1.0
34.889588000000003 0.000000000000000 -12.483556000000000
0.000000000000000 29.961455999999998 0.000000000000000
0.000000000000000 0.000000000000000 41.287011999999997
H O
3584 1792
Cartesian
2.995157738639000 4.823097812148000 2.019743921222000
2.995157738639000 4.823097812148000 12.341496921221999
2.995157738639000 4.823097812148000 22.663249921221997
2.995157738639000 4.823097812148000 32.985002921221998
2.995157738639000 12.313461812147999 2.019743921222000
2.995157738639000 12.313461812147999 12.341496921221999
2.995157738639000 12.313461812147999 22.663249921221997
2.995157738639000 12.313461812147999 32.985002921221998
2.995157738639000 19.803825812147998 2.019743921222000
2.995157738639000 19.803825812147998 12.341496921221999
2.995157738639000 19.803825812147998 22.663249921221997
2.995157738639000 19.803825812147998 32.985002921221998
2.995157738639000 27.294189812147998 2.019743921222000
2.995157738639000 27.294189812147998 12.341496921221999
2.995157738639000 27.294189812147998 22.663249921221997
2.995157738639000 27.294189812147998 32.985002921221998
11.717554738639000 4.823097812148000 -1.101145078778000
11.717554738639000 4.823097812148000 9.220607921221999
11.717554738639000 4.823097812148000 19.542360921221999
11.717554738639000 4.823097812148000 29.864113921222000
11.717554738639000 12.313461812147999 -1.101145078778000
11.717554738639000 12.313461812147999 9.220607921221999
11.717554738639000 12.313461812147999 19.542360921221999
11.717554738639000 12.313461812147999 29.864113921222000
11.717554738639000 19.803825812147998 -1.101145078778000
11.717554738639000 19.803825812147998 9.220607921221999
11.717554738639000 19.803825812147998 19.542360921221999
11.717554738639000 19.803825812147998 29.864113921222000
11.717554738639000 27.294189812147998 -1.101145078778000
11.717554738639000 27.294189812147998 9.220607921221999
11.717554738639000 27.294189812147998 19.542360921221999
11.717554738639000 27.294189812147998 29.864113921222000
20.439951738639003 4.823097812148000 -4.222034078778000
20.439951738639003 4.823097812148000 6.099718921221999
20.439951738639003 4.823097812148000 16.421471921222000
20.439951738639003 4.823097812148000 26.743224921221994
20.439951738639003 12.313461812147999 -4.222034078778000
20.439951738639003 12.313461812147999 6.099718921221999
20.439951738639003 12.313461812147999 16.421471921222000
20.439951738639003 12.313461812147999 26.743224921221994
20.439951738639003 19.803825812147998 -4.222034078778000
20.439951738639003 19.803825812147998 6.099718921221999
20.439951738639003 19.803825812147998 16.421471921222000
20.439951738639003 19.803825812147998 26.743224921221994
20.439951738639003 27.294189812147998 -4.222034078778000
20.439951738639003 27.294189812147998 6.099718921221999
20.439951738639003 27.294189812147998 16.421471921222000
20.439951738639003 27.294189812147998 26.743224921221994
29.162348738639004 4.823097812148000 -7.342923078778000
29.162348738639004 4.823097812148000 2.978829921221999
29.162348738639004 4.823097812148000 13.300582921221999
29.162348738639004 4.823097812148000 23.622335921221996
29.162348738639004 12.313461812147999 -7.342923078778000
29.162348738639004 12.313461812147999 2.978829921221999
29.162348738639004 12.313461812147999 13.300582921221999
29.162348738639004 12.313461812147999 23.622335921221996
29.162348738639004 19.803825812147998 -7.342923078778000
29.162348738639004 19.803825812147998 2.978829921221999
29.162348738639004 19.803825812147998 13.300582921221999
29.162348738639004 19.803825812147998 23.622335921221996
29.162348738639004 27.294189812147998 -7.342923078778000
29.162348738639004 27.294189812147998 2.978829921221999
29.162348738639004 27.294189812147998 13.300582921221999
29.162348738639004 27.294189812147998 23.622335921221996
2.160563904091000 3.689296394196000 2.677807790770000
2.160563904091000 3.689296394196000 12.999560790769999
2.160563904091000 3.689296394196000 23.321313790769999
2.160563904091000 3.689296394196000 33.643066790769993
2.160563904091000 11.179660394195999 2.677807790770000
2.160563904091000 11.179660394195999 12.999560790769999
2.160563904091000 11.179660394195999 23.321313790769999
2.160563904091000 11.179660394195999 33.643066790769993
2.160563904091000 18.670024394195998 2.677807790770000
2.160563904091000 18.670024394195998 12.999560790769999
2.160563904091000 18.670024394195998 23.321313790769999
2.160563904091000 18.670024394195998 33.643066790769993
2.160563904091000 26.160388394195998 2.677807790770000
2.160563904091000 26.160388394195998 12.999560790769999
2.160563904091000 26.160388394195998 23.321313790769999
2.160563904091000 26.160388394195998 33.643066790769993
10.882960904091000 3.689296394196000 -0.443081209230000
10.882960904091000 3.689296394196000 9.878671790769999
10.882960904091000 3.689296394196000 20.200424790769997
10.882960904091000 3.689296394196000 30.522177790769998
10.882960904091000 11.179660394195999 -0.443081209230000
10.882960904091000 11.179660394195999 9.878671790769999
10.882960904091000 11.179660394195999 20.200424790769997
10.882960904091000 11.179660394195999 30.522177790769998
10.882960904091000 18.670024394195998 -0.443081209230000
10.882960904091000 18.670024394195998 9.878671790769999
10.882960904091000 18.670024394195998 20.200424790769997
10.882960904091000 18.670024394195998 30.522177790769998
10.882960904091000 26.160388394195998 -0.443081209230000
10.882960904091000 26.160388394195998 9.878671790769999
10.882960904091000 26.160388394195998 20.200424790769997
10.882960904091000 26.160388394195998 30.522177790769998
19.605357904091001 3.689296394196000 -3.563970209230000
19.605357904091001 3.689296394196000 6.757782790769999
19.605357904091001 3.689296394196000 17.079535790769999
19.605357904091001 3.689296394196000 27.401288790769996
19.605357904091001 11.179660394195999 -3.563970209230000
19.605357904091001 11.179660394195999 6.757782790769999
19.605357904091001 11.179660394195999 17.079535790769999
19.605357904091001 11.179660394195999 27.401288790769996
19.605357904091001 18.670024394195998 -3.563970209230000
19.605357904091001 18.670024394195998 6.757782790769999
19.605357904091001 18.670024394195998 17.079535790769999
19.605357904091001 18.670024394195998 27.401288790769996
19.605357904091001 26.160388394195998 -3.563970209230000
19.605357904091001 26.160388394195998 6.757782790769999
19.605357904091001 26.160388394195998 17.079535790769999
19.605357904091001 26.160388394195998 27.401288790769996
28.327754904091002 3.689296394196000 -6.684859209230000
28.327754904091002 3.689296394196000 3.636893790769999
28.327754904091002 3.689296394196000 13.958646790769999
28.327754904091002 3.689296394196000 24.280399790769994
28.327754904091002 11.179660394195999 -6.684859209230000
28.327754904091002 11.179660394195999 3.636893790769999
28.327754904091002 11.179660394195999 13.958646790769999
28.327754904091002 11.179660394195999 24.280399790769994
28.327754904091002 18.670024394195998 -6.684859209230000
28.327754904091002 18.670024394195998 3.636893790769999
28.327754904091002 18.670024394195998 13.958646790769999
28.327754904091002 18.670024394195998 24.280399790769994
28.327754904091002 26.160388394195998 -6.684859209230000
28.327754904091002 26.160388394195998 3.636893790769999
28.327754904091002 26.160388394195998 13.958646790769999
28.327754904091002 26.160388394195998 24.280399790769994
1.053848727937000 5.362411510512000 1.281120689581000
1.053848727937000 5.362411510512000 11.602873689580999
1.053848727937000 5.362411510512000 21.924626689580997
1.053848727937000 5.362411510512000 32.246379689580998
1.053848727937000 12.852775510512000 1.281120689581000
1.053848727937000 12.852775510512000 11.602873689580999
1.053848727937000 12.852775510512000 21.924626689580997
1.053848727937000 12.852775510512000 32.246379689580998
1.053848727937000 20.343139510512000 1.281120689581000
1.053848727937000 20.343139510512000 11.602873689580999
1.053848727937000 20.343139510512000 21.924626689580997
1.053848727937000 20.343139510512000 32.246379689580998
1.053848727937000 27.833503510511999 1.281120689581000
1.053848727937000 27.833503510511999 11.602873689580999
1.053848727937000 27.833503510511999 21.924626689580997
1.053848727937000 27.833503510511999 32.246379689580998
9.776245727937001 5.362411510512000 -1.839768310419000
9.776245727937001 5.362411510512000 8.481984689580999
9.776245727937001 5.362411510512000 18.803737689580998
9.776245727937001 5.362411510512000 29.125490689581000
9.776245727937001 12.852775510512000 -1.839768310419000
9.776245727937001 12.852775510512000 8.481984689580999
9.776245727937001 12.852775510512000 18.803737689580998
9.776245727937001 12.852775510512000 29.125490689581000
9.776245727937001 20.343139510512000 -1.839768310419000
9.776245727937001 20.343139510512000 8.481984689580999
9.776245727937001 20.343139510512000 18.803737689580998
9.776245727937001 20.343139510512000 29.125490689581000
9.776245727937001 27.833503510511999 -1.839768310419000
9.776245727937001 27.833503510511999 8.481984689580999
9.776245727937001 27.833503510511999 18.803737689580998
9.776245727937001 27.833503510511999 29.125490689581000
18.498642727937003 5.362411510512000 -4.960657310419000
18.498642727937003 5.362411510512000 5.361095689580999
18.498642727937003 5.362411510512000 15.682848689580998
18.498642727937003 5.362411510512000 26.004601689580994
18.498642727937003 12.852775510512000 -4.960657310419000
18.498642727937003 12.852775510512000 5.361095689580999
18.498642727937003 12.852775510512000 15.682848689580998
18.498642727937003 12.852775510512000 26.004601689580994
18.498642727937003 20.343139510512000 -4.960657310419000
18.498642727937003 20.343139510512000 5.361095689580999
18.498642727937003 20.343139510512000 15.682848689580998
18.498642727937003 20.343139510512000 26.004601689580994
18.498642727937003 27.833503510511999 -4.960657310419000
18.498642727937003 27.833503510511999 5.361095689580999
18.498642727937003 27.833503510511999 15.682848689580998
18.498642727937003 27.833503510511999 26.004601689580994
27.221039727937004 5.362411510512000 -8.081546310419000
27.221039727937004 5.362411510512000 2.240206689580999
27.221039727937004 5.362411510512000 12.561959689580998
27.221039727937004 5.362411510512000 22.883712689580996
27.221039727937004 12.852775510512000 -8.081546310419000
27.221039727937004 12.852775510512000 2.240206689580999
27.221039727937004 12.852775510512000 12.561959689580998
27.221039727937004 12.852775510512000 22.883712689580996
27.221039727937004 20.343139510512000 -8.081546310419000
27.221039727937004 20.343139510512000 2.240206689580999
27.221039727937004 20.343139510512000 12.561959689580998
27.221039727937004 20.343139510512000 22.883712689580996
27.221039727937004 27.833503510511999 -8.081546310419000
27.221039727937004 27.833503510511999 2.240206689580999
27.221039727937004 27.833503510511999 12.561959689580998
27.221039727937004 27.833503510511999 22.883712689580996
4.106216668499000 6.823047471240000 2.142473040366999
4.106216668499000 6.823047471240000 12.464226040366999
4.106216668499000 6.823047471240000 22.785979040366996
4.106216668499000 6.823047471240000 33.107732040366997
4.106216668499000 14.313411471239998 2.142473040366999
4.106216668499000 14.313411471239998 12.464226040366999
4.106216668499000 14.313411471239998 22.785979040366996
4.106216668499000 14.313411471239998 33.107732040366997
4.106216668499000 21.803775471239998 2.142473040366999
4.106216668499000 21.803775471239998 12.464226040366999
4.106216668499000 21.803775471239998 22.785979040366996
4.106216668499000 21.803775471239998 33.107732040366997
4.106216668499000 29.294139471239998 2.142473040366999
4.106216668499000 29.294139471239998 12.464226040366999
4.106216668499000 29.294139471239998 22.785979040366996
4.106216668499000 29.294139471239998 33.107732040366997
12.828613668499001 6.823047471240000 -0.978415959633001
12.828613668499001 6.823047471240000 9.343337040366999
12.828613668499001 6.823047471240000 19.665090040366994
12.828613668499001 6.823047471240000 29.986843040366995
12.828613668499001 14.313411471239998 -0.978415959633001
12.828613668499001 14.313411471239998 9.343337040366999
12.828613668499001 14.313411471239998 19.665090040366994
12.828613668499001 14.313411471239998 29.986843040366995
12.828613668499001 21.803775471239998 -0.978415959633001
12.828613668499001 21.803775471239998 9.343337040366999
12.828613668499001 21.803775471239998 19.665090040366994
12.828613668499001 21.803775471239998 29.986843040366995
12.828613668499001 29.294139471239998 -0.978415959633001
12.828613668499001 29.294139471239998 9.343337040366999
12.828613668499001 29.294139471239998 19.665090040366994
12.828613668499001 29.294139471239998 29.986843040366995
21.551010668499003 6.823047471240000 -4.099304959633001
21.551010668499003 6.823047471240000 6.222448040366999
21.551010668499003 6.823047471240000 16.544201040366996
21.551010668499003 6.823047471240000 26.865954040366994
21.551010668499003 14.313411471239998 -4.099304959633001
21.551010668499003 14.313411471239998 6.222448040366999
21.551010668499003 14.313411471239998 16.544201040366996
21.551010668499003 14.313411471239998 26.865954040366994
21.551010668499003 21.803775471239998 -4.099304959633001
21.551010668499003 21.803775471239998 6.222448040366999
21.551010668499003 21.803775471239998 16.544201040366996
21.551010668499003 21.803775471239998 26.865954040366994
21.551010668499003 29.294139471239998 -4.099304959633001
21.551010668499003 29.294139471239998 6.222448040366999
21.551010668499003 29.294139471239998 16.544201040366996
21.551010668499003 29.294139471239998 26.865954040366994
30.273407668499004 6.823047471240000 -7.220193959633001
30.273407668499004 6.823047471240000 3.101559040366998
30.273407668499004 6.823047471240000 13.423312040366998
30.273407668499004 6.823047471240000 23.745065040366992
30.273407668499004 14.313411471239998 -7.220193959633001
30.273407668499004 14.313411471239998 3.101559040366998
30.273407668499004 14.313411471239998 13.423312040366998
30.273407668499004 14.313411471239998 23.745065040366992
30.273407668499004 21.803775471239998 -7.220193959633001
30.273407668499004 21.803775471239998 3.101559040366998
30.273407668499004 21.803775471239998 13.423312040366998
30.273407668499004 21.803775471239998 23.745065040366992
30.273407668499004 29.294139471239998 -7.220193959633001
30.273407668499004 29.294139471239998 3.101559040366998
30.273407668499004 29.294139471239998 13.423312040366998
30.273407668499004 29.294139471239998 23.745065040366992
4.961997205360001 5.615818014996000 2.780589796374000
4.961997205360001 5.615818014996000 13.102342796374000
4.961997205360001 5.615818014996000 23.424095796373997
4.961997205360001 5.615818014996000 33.745848796373998
4.961997205360001 13.106182014996000 2.780589796374000
4.961997205360001 13.106182014996000 13.102342796374000
4.961997205360001 13.106182014996000 23.424095796373997
4.961997205360001 13.106182014996000 33.745848796373998
4.961997205360001 20.596546014996001 2.780589796374000
4.961997205360001 20.596546014996001 13.102342796374000
4.961997205360001 20.596546014996001 23.424095796373997
4.961997205360001 20.596546014996001 33.745848796373998
4.961997205360001 28.086910014996000 2.780589796374000
4.961997205360001 28.086910014996000 13.102342796374000
4.961997205360001 28.086910014996000 23.424095796373997
4.961997205360001 28.086910014996000 33.745848796373998
13.684394205360002 5.615818014996000 -0.340299203626000
13.684394205360002 5.615818014996000 9.981453796374000
13.684394205360002 5.615818014996000 20.303206796373996
13.684394205360002 5.615818014996000 30.624959796373997
13.684394205360002 13.106182014996000 -0.340299203626000
13.684394205360002 13.106182014996000 9.981453796374000
13.684394205360002 13.106182014996000 20.303206796373996
13.684394205360002 13.106182014996000 30.624959796373997
13.684394205360002 20.596546014996001 -0.340299203626000
13.684394205360002 20.596546014996001 9.981453796374000
13.684394205360002 20.596546014996001 20.303206796373996
13.684394205360002 20.596546014996001 30.624959796373997
13.684394205360002 28.086910014996000 -0.340299203626000
13.684394205360002 28.086910014996000 9.981453796374000
13.684394205360002 28.086910014996000 20.303206796373996
13.684394205360002 28.086910014996000 30.624959796373997
22.406791205360001 5.615818014996000 -3.461188203626000
22.406791205360001 5.615818014996000 6.860564796374000
22.406791205360001 5.615818014996000 17.182317796373997
22.406791205360001 5.615818014996000 27.504070796373995
22.406791205360001 13.106182014996000 -3.461188203626000
22.406791205360001 13.106182014996000 6.860564796374000
22.406791205360001 13.106182014996000 17.182317796373997
22.406791205360001 13.106182014996000 27.504070796373995
22.406791205360001 20.596546014996001 -3.461188203626000
22.406791205360001 20.596546014996001 6.860564796374000
22.406791205360001 20.596546014996001 17.182317796373997
22.406791205360001 20.596546014996001 27.504070796373995
22.406791205360001 28.086910014996000 -3.461188203626000
22.406791205360001 28.086910014996000 6.860564796374000
22.406791205360001 28.086910014996000 17.182317796373997
22.406791205360001 28.086910014996000 27.504070796373995
31.129188205360002 5.615818014996000 -6.582077203626000
31.129188205360002 5.615818014996000 3.739675796373999
31.129188205360002 5.615818014996000 14.061428796373999
31.129188205360002 5.615818014996000 24.383181796373993
31.129188205360002 13.106182014996000 -6.582077203626000
31.129188205360002 13.106182014996000 3.739675796373999
31.129188205360002 13.106182014996000 14.061428796373999
31.129188205360002 13.106182014996000 24.383181796373993
31.129188205360002 20.596546014996001 -6.582077203626000
31.129188205360002 20.596546014996001 3.739675796373999
31.129188205360002 20.596546014996001 14.061428796373999
31.129188205360002 20.596546014996001 24.383181796373993
31.129188205360002 28.086910014996000 -6.582077203626000
31.129188205360002 28.086910014996000 3.739675796373999
31.129188205360002 28.086910014996000 14.061428796373999
31.129188205360002 28.086910014996000 24.383181796373993
-0.345799429065000 5.638925787936000 0.641962219029000
-0.345799429065000 5.638925787936000 10.963715219029000
-0.345799429065000 5.638925787936000 21.285468219028999
-0.345799429065000 5.638925787936000 31.607221219028997
-0.345799429065000 13.129289787935999 0.641962219029000
-0.345799429065000 13.129289787935999 10.963715219029000
-0.345799429065000 13.129289787935999 21.285468219028999
-0.345799429065000 13.129289787935999 31.607221219028997
-0.345799429065000 20.619653787935999 0.641962219029000
-0.345799429065000 20.619653787935999 10.963715219029000
-0.345799429065000 20.619653787935999 21.285468219028999
-0.345799429065000 20.619653787935999 31.607221219028997
-0.345799429065000 28.110017787935998 0.641962219029000
-0.345799429065000 28.110017787935998 10.963715219029000
-0.345799429065000 28.110017787935998 21.285468219028999
-0.345799429065000 28.110017787935998 31.607221219028997
8.376597570935001 5.638925787936000 -2.478926780971000
8.376597570935001 5.638925787936000 7.842826219028999
8.376597570935001 5.638925787936000 18.164579219028997
8.376597570935001 5.638925787936000 28.486332219028998
8.376597570935001 13.129289787935999 -2.478926780971000
8.376597570935001 13.129289787935999 7.842826219028999
8.376597570935001 13.129289787935999 18.164579219028997
8.376597570935001 13.129289787935999 28.486332219028998
8.376597570935001 20.619653787935999 -2.478926780971000
8.376597570935001 20.619653787935999 7.842826219028999
8.376597570935001 20.619653787935999 18.164579219028997
8.376597570935001 20.619653787935999 28.486332219028998
8.376597570935001 28.110017787935998 -2.478926780971000
8.376597570935001 28.110017787935998 7.842826219028999
8.376597570935001 28.110017787935998 18.164579219028997
8.376597570935001 28.110017787935998 28.486332219028998
17.098994570935002 5.638925787936000 -5.599815780971000
17.098994570935002 5.638925787936000 4.721937219028999
17.098994570935002 5.638925787936000 15.043690219028999
17.098994570935002 5.638925787936000 25.365443219028997
17.098994570935002 13.129289787935999 -5.599815780971000
17.098994570935002 13.129289787935999 4.721937219028999
17.098994570935002 13.129289787935999 15.043690219028999
17.098994570935002 13.129289787935999 25.365443219028997
17.098994570935002 20.619653787935999 -5.599815780971000
17.098994570935002 20.619653787935999 4.721937219028999
17.098994570935002 20.619653787935999 15.043690219028999
17.098994570935002 20.619653787935999 25.365443219028997
17.098994570935002 28.110017787935998 -5.599815780971000
17.098994570935002 28.110017787935998 4.721937219028999
17.098994570935002 28.110017787935998 15.043690219028999
17.098994570935002 28.110017787935998 25.365443219028997
25.821391570935003 5.638925787936000 -8.720704780970999
25.821391570935003 5.638925787936000 1.601048219028999
25.821391570935003 5.638925787936000 11.922801219028999
25.821391570935003 5.638925787936000 22.244554219028995
25.821391570935003 13.129289787935999 -8.720704780970999
25.821391570935003 13.129289787935999 1.601048219028999
25.821391570935003 13.129289787935999 11.922801219028999
25.821391570935003 13.129289787935999 22.244554219028995
25.821391570935003 20.619653787935999 -8.720704780970999
25.821391570935003 20.619653787935999 1.601048219028999
25.821391570935003 20.619653787935999 11.922801219028999
25.821391570935003 20.619653787935999 22.244554219028995
25.821391570935003 28.110017787935998 -8.720704780970999
25.821391570935003 28.110017787935998 1.601048219028999
25.821391570935003 28.110017787935998 11.922801219028999
25.821391570935003 28.110017787935998 22.244554219028995
2.021284668795000 3.379412545152000 0.258462071909000
2.021284668795000 3.379412545152000 10.580215071908999
2.021284668795000 3.379412545152000 20.901968071909000
2.021284668795000 3.379412545152000 31.223721071908997
2.021284668795000 10.869776545152000 0.258462071909000
2.021284668795000 10.869776545152000 10.580215071908999
2.021284668795000 10.869776545152000 20.901968071909000
2.021284668795000 10.869776545152000 31.223721071908997
2.021284668795000 18.360140545151999 0.258462071909000
2.021284668795000 18.360140545151999 10.580215071908999
2.021284668795000 18.360140545151999 20.901968071909000
2.021284668795000 18.360140545151999 31.223721071908997
2.021284668795000 25.850504545151999 0.258462071909000
2.021284668795000 25.850504545151999 10.580215071908999
2.021284668795000 25.850504545151999 20.901968071909000
2.021284668795000 25.850504545151999 31.223721071908997
10.743681668795000 3.379412545152000 -2.862426928091000
10.743681668795000 3.379412545152000 7.459326071909000
10.743681668795000 3.379412545152000 17.781079071908998
10.743681668795000 3.379412545152000 28.102832071908999
10.743681668795000 10.869776545152000 -2.862426928091000
10.743681668795000 10.869776545152000 7.459326071909000
10.743681668795000 10.869776545152000 17.781079071908998
10.743681668795000 10.869776545152000 28.102832071908999
10.743681668795000 18.360140545151999 -2.862426928091000
10.743681668795000 18.360140545151999 7.459326071909000
10.743681668795000 18.360140545151999 17.781079071908998
10.743681668795000 18.360140545151999 28.102832071908999
10.743681668795000 25.850504545151999 -2.862426928091000
10.743681668795000 25.850504545151999 7.459326071909000
10.743681668795000 25.850504545151999 17.781079071908998
10.743681668795000 25.850504545151999 28.102832071908999
19.466078668795003 3.379412545152000 -5.983315928091000
19.466078668795003 3.379412545152000 4.338437071909000
19.466078668795003 3.379412545152000 14.660190071908998
19.466078668795003 3.379412545152000 24.981943071908997
19.466078668795003 10.869776545152000 -5.983315928091000
19.466078668795003 10.869776545152000 4.338437071909000
19.466078668795003 10.869776545152000 14.660190071908998
19.466078668795003 10.869776545152000 24.981943071908997
19.466078668795003 18.360140545151999 -5.983315928091000
19.466078668795003 18.360140545151999 4.338437071909000
19.466078668795003 18.360140545151999 14.660190071908998
19.466078668795003 18.360140545151999 24.981943071908997
19.466078668795003 25.850504545151999 -5.983315928091000
19.466078668795003 25.850504545151999 4.338437071909000
19.466078668795003 25.850504545151999 14.660190071908998
19.466078668795003 25.850504545151999 24.981943071908997
28.188475668795004 3.379412545152000 -9.104204928091001
28.188475668795004 3.379412545152000 1.217548071908999
28.188475668795004 3.379412545152000 11.539301071908998
28.188475668795004 3.379412545152000 21.861054071908995
28.188475668795004 10.869776545152000 -9.104204928091001
28.188475668795004 10.869776545152000 1.217548071908999
28.188475668795004 10.869776545152000 11.539301071908998
28.188475668795004 10.869776545152000 21.861054071908995
28.188475668795004 18.360140545151999 -9.104204928091001
28.188475668795004 18.360140545151999 1.217548071908999
28.188475668795004 18.360140545151999 11.539301071908998
28.188475668795004 18.360140545151999 21.861054071908995
28.188475668795004 25.850504545151999 -9.104204928091001
28.188475668795004 25.850504545151999 1.217548071908999
28.188475668795004 25.850504545151999 11.539301071908998
28.188475668795004 25.850504545151999 21.861054071908995
2.730947611112000 3.671454347148000 4.993036325127000
2.730947611112000 3.671454347148000 15.314789325126998
2.730947611112000 3.671454347148000 25.636542325126999
2.730947611112000 3.671454347148000 35.958295325126997
2.730947611112000 11.161818347147999 4.993036325127000
2.730947611112000 11.161818347147999 15.314789325126998
2.730947611112000 11.161818347147999 25.636542325126999
2.730947611112000 11.161818347147999 35.958295325126997
2.730947611112000 18.652182347147999 4.993036325127000
2.730947611112000 18.652182347147999 15.314789325126998
2.730947611112000 18.652182347147999 25.636542325126999
2.730947611112000 18.652182347147999 35.958295325126997
2.730947611112000 26.142546347147999 4.993036325127000
2.730947611112000 26.142546347147999 15.314789325126998
2.730947611112000 26.142546347147999 25.636542325126999
2.730947611112000 26.142546347147999 35.958295325126997
11.453344611112001 3.671454347148000 1.872147325127000
11.453344611112001 3.671454347148000 12.193900325127000
11.453344611112001 3.671454347148000 22.515653325126998
11.453344611112001 3.671454347148000 32.837406325126999
11.453344611112001 11.161818347147999 1.872147325127000
11.453344611112001 11.161818347147999 12.193900325127000
11.453344611112001 11.161818347147999 22.515653325126998
11.453344611112001 11.161818347147999 32.837406325126999
11.453344611112001 18.652182347147999 1.872147325127000
11.453344611112001 18.652182347147999 12.193900325127000
11.453344611112001 18.652182347147999 22.515653325126998
11.453344611112001 18.652182347147999 32.837406325126999
11.453344611112001 26.142546347147999 1.872147325127000
11.453344611112001 26.142546347147999 12.193900325127000
11.453344611112001 26.142546347147999 22.515653325126998
11.453344611112001 26.142546347147999 32.837406325126999
20.175741611112002 3.671454347148000 -1.248741674873000
20.175741611112002 3.671454347148000 9.073011325126998
20.175741611112002 3.671454347148000 19.394764325126999
20.175741611112002 3.671454347148000 29.716517325126997
20.175741611112002 11.161818347147999 -1.248741674873000
20.175741611112002 11.161818347147999 9.073011325126998
20.175741611112002 11.161818347147999 19.394764325126999
20.175741611112002 11.161818347147999 29.716517325126997
20.175741611112002 18.652182347147999 -1.248741674873000
20.175741611112002 18.652182347147999 9.073011325126998
20.175741611112002 18.652182347147999 19.394764325126999
20.175741611112002 18.652182347147999 29.716517325126997
20.175741611112002 26.142546347147999 -1.248741674873000
20.175741611112002 26.142546347147999 9.073011325126998
20.175741611112002 26.142546347147999 19.394764325126999
20.175741611112002 26.142546347147999 29.716517325126997
28.898138611112003 3.671454347148000 -4.369630674873000
28.898138611112003 3.671454347148000 5.952122325126999
28.898138611112003 3.671454347148000 16.273875325126998
28.898138611112003 3.671454347148000 26.595628325126995
28.898138611112003 11.161818347147999 -4.369630674873000
28.898138611112003 11.161818347147999 5.952122325126999
28.898138611112003 11.161818347147999 16.273875325126998
28.898138611112003 11.161818347147999 26.595628325126995
28.898138611112003 18.652182347147999 -4.369630674873000
28.898138611112003 18.652182347147999 5.952122325126999
28.898138611112003 18.652182347147999 16.273875325126998
28.898138611112003 18.652182347147999 26.595628325126995
28.898138611112003 26.142546347147999 -4.369630674873000
28.898138611112003 26.142546347147999 5.952122325126999
28.898138611112003 26.142546347147999 16.273875325126998
28.898138611112003 26.142546347147999 26.595628325126995
1.554584094913000 2.675565511164000 4.778007737807000
1.554584094913000 2.675565511164000 15.099760737806999
1.554584094913000 2.675565511164000 25.421513737806997
1.554584094913000 2.675565511164000 35.743266737806998
1.554584094913000 10.165929511164000 4.778007737807000
1.554584094913000 10.165929511164000 15.099760737806999
1.554584094913000 10.165929511164000 25.421513737806997
1.554584094913000 10.165929511164000 35.743266737806998
1.554584094913000 17.656293511163998 4.778007737807000
1.554584094913000 17.656293511163998 15.099760737806999
1.554584094913000 17.656293511163998 25.421513737806997
1.554584094913000 17.656293511163998 35.743266737806998
1.554584094913000 25.146657511163998 4.778007737807000
1.554584094913000 25.146657511163998 15.099760737806999
1.554584094913000 25.146657511163998 25.421513737806997
1.554584094913000 25.146657511163998 35.743266737806998
10.276981094913001 2.675565511164000 1.657118737807000