# DMC13_GXTB_PROTOCOL dmc13-gxtb-spglib-reduced-v1
&GLOBAL
  PRINT_LEVEL LOW
  PROJECT ice_III_GXTB_k555
  RUN_TYPE ENERGY
&END GLOBAL

&FORCE_EVAL
  METHOD Quickstep
  &DFT
    &QS
      EPS_DEFAULT 1.0E-12
      METHOD xTB
      &XTB
        GFN_TYPE TBLITE
        &TBLITE
          METHOD GXTB
          ACCURACY 0.1
        &END TBLITE
        SCC_MIXER TBLITE
        &TBLITE_MIXER
          ITERATIONS 300
        &END TBLITE_MIXER
      &END XTB
    &END QS
    &KPOINTS
      SCHEME MACDONALD 5 5 5 0.0 0.0 0.0
      SYMMETRY T
      FULL_GRID F
      SYMMETRY_BACKEND SPGLIB
      SYMMETRY_REDUCTION_METHOD SPGLIB
    &END KPOINTS
    &SCF
      EPS_SCF 1.0E-9
      MAX_SCF 300
      SCF_GUESS MOPAC
      &MIXING
        METHOD DIRECT_P_MIXING
        ALPHA 0.2
      &END MIXING
      &PRINT
        &RESTART OFF
        &END RESTART
      &END PRINT
    &END SCF
  &END DFT
  &SUBSYS
    &CELL
      CANONICALIZE TRUE
      PERIODIC XYZ
      A 6.656960910599 -0.005415985843 -0.002062961627
      B -0.005565613813 6.559087831344 -0.042170168336
      C 0.000828053123 -0.044407337396 7.452026881070
    &END CELL
    &COORD
      SCALED
      H   0.241693018206  0.347582944061  0.181699447235
      H   0.755898358536  0.658007884995  0.679442812891
      H   0.143610618436  0.745870535753  0.424970459642
      H   0.253528500703  0.843736104635  0.089395889119
      H   0.739377282221  0.151064992551  0.585418150459
      H   0.642001703103  0.754938805602  0.343453287131
      H   0.366779089568  0.910280073349  0.912699675381
      H   0.629634781070  0.078290564780  0.407215035114
      H   0.421698112451  0.132785973381  0.659843742587
      H   0.573761708046  0.855973572327  0.161255374399
      H   0.990575198076  0.655805839352  0.672760073196
      H   0.142925319163  0.508172817245  0.426332431797
      H   0.859652676803  0.500297415860  0.922247174231
      H   0.191871590497  0.118862400280  0.734085493235
      H   0.888434911406  0.183698253556  0.846651724128
      H   0.388567039387  0.314268183656  0.920822883830
      H   0.400764207137  0.546256394288  0.996521621958
      H   0.596778088679  0.440024643226  0.494106192037
      H   0.096987104809  0.061494001240  0.268725558515
      H   0.431144543838  0.609430753290  0.525624403029
      H   0.006868842949  0.354581812253  0.176268307493
      H   0.689163104862  0.384181119264  0.025854874497
      H   0.931853468151  0.890481594125  0.238065719712
      H   0.901230222334  0.953062775348  0.766994494388
      O   0.120983813688  0.323342249991  0.258572794356
      O   0.876023197411  0.686379051694  0.755783628588
      O   0.170412811552  0.628825465790  0.506132887976
      O   0.836574698425  0.380790042943  0.001519222226
      O   0.372416604009  0.811368639885  0.012665119875
      O   0.619110755341  0.177834299001  0.508955721361
      O   0.336235608417  0.120788281090  0.768967971328
      O   0.672056932981  0.870444246909  0.261472664596
      O   0.427629858826  0.401197341900  0.026270319236
      O   0.579227298162  0.589690755211  0.513541586558
      O   0.079294164684  0.910836228062  0.253826432898
      O   0.927234766077  0.099353943106  0.739836824998
    &END COORD
  &END SUBSYS
&END FORCE_EVAL
