&GLOBAL
  PRINT_LEVEL LOW
  PROJECT hexamine_GFN1_mol_geoopt
  RUN_TYPE GEO_OPT
&END GLOBAL

&FORCE_EVAL
  METHOD Quickstep
  &DFT
    &QS
      EPS_DEFAULT 1.0E-12
      METHOD xTB
      &XTB
        GFN_TYPE TBLITE
        &TBLITE
          METHOD GFN1
          ACCURACY 0.1
        &END TBLITE
      &END XTB
    &END QS
    &POISSON
      PERIODIC NONE
    &END POISSON
    &SCF
      EPS_SCF 1.0E-9
      MAX_SCF 300
      SCF_GUESS MOPAC
      &MIXING
        METHOD DIRECT_P_MIXING
        ALPHA 0.2
      &END MIXING
    &END SCF
  &END DFT
  &SUBSYS
    &CELL
      ABC 30.0 30.0 30.0
      PERIODIC NONE
    &END CELL
    &COORD
      H  -1.337975669132  0.165468608124  2.089421302272
      C  -0.974831481103  0.689329658845  1.193940988296
      H  -1.337975669132  1.726768828653  1.187994381744
      N   0.501416184755  0.709106672602  1.228195407858
      N  -1.504215787300  0.000000000000  0.000000000000
      C   0.974847407649 -0.689307135400  1.193940988296
      C   0.974847407649  1.378636794245  0.000000000000
      C  -0.974847407649  0.689307135400 -1.193940988296
      C  -0.974847407649 -1.378636794245  0.000000000000
      H   0.601992544328 -1.206301673727  2.089421302272
      H   0.601992544328  2.412642763947  0.000000000000
      H   2.074002512940 -0.685873935294  1.187994381744
      H   2.074002512940  1.371770281851  0.000000000000
      H  -1.338003540915  0.165429191631 -2.089421302272
      H  -1.338003540915 -1.892215025513 -0.901426920529
      H  -1.337991516353 -1.892198020285  0.901426920529
      H  -1.337991516353  1.726746417390 -1.187994381744
      N   0.501399801273  0.709083502955 -1.228195407858
      N   0.501399801273 -1.418190175557  0.000000000000
      C   0.974831481103 -0.689329658845 -1.193940988296
      H   0.601964672545 -1.206341090220 -2.089421302272
      H   2.073986665719 -0.685896346557 -1.187994381744
    &END COORD
  &END SUBSYS
&END FORCE_EVAL

&MOTION
  &GEO_OPT
    OPTIMIZER BFGS
    MAX_ITER 200
  &END GEO_OPT
&END MOTION
