DMC-ICE13 ice XI; Cartesian 4x4x4 supercell
1.0
17.648693304828001 0.000000000000000 0.000000000000000
0.000000000000000 30.653952379900002 0.000497212988000
0.000000000000000 0.000468085132000 28.798368452028001
H O
1024 512
Cartesian
0.000000000000000 4.143819585155801 0.143256839167901
0.000000000000000 4.143936606438801 7.342848952174901
0.000000000000000 4.144053627721801 14.542441065181901
0.000000000000000 4.144170649004801 21.742033178188901
0.000000000000000 11.807307680130801 0.143381142414901
0.000000000000000 11.807424701413801 7.342973255421901
0.000000000000000 11.807541722696801 14.542565368428901
0.000000000000000 11.807658743979800 21.742157481435900
0.000000000000000 19.470795775105803 0.143505445661901
0.000000000000000 19.470912796388802 7.343097558668902
0.000000000000000 19.471029817671802 14.542689671675902
0.000000000000000 19.471146838954802 21.742281784682902
0.000000000000000 27.134283870080800 0.143629748908901
0.000000000000000 27.134400891363800 7.343221861915902
0.000000000000000 27.134517912646800 14.542813974922900
0.000000000000000 27.134634933929799 21.742406087929901
4.412173326207000 4.143819585155801 0.143256839167901
4.412173326207000 4.143936606438801 7.342848952174901
4.412173326207000 4.144053627721801 14.542441065181901
4.412173326207000 4.144170649004801 21.742033178188901
4.412173326207000 11.807307680130801 0.143381142414901
4.412173326207000 11.807424701413801 7.342973255421901
4.412173326207000 11.807541722696801 14.542565368428901
4.412173326207000 11.807658743979800 21.742157481435900
4.412173326207000 19.470795775105803 0.143505445661901
4.412173326207000 19.470912796388802 7.343097558668902
4.412173326207000 19.471029817671802 14.542689671675902
4.412173326207000 19.471146838954802 21.742281784682902
4.412173326207000 27.134283870080800 0.143629748908901
4.412173326207000 27.134400891363800 7.343221861915902
4.412173326207000 27.134517912646800 14.542813974922900
4.412173326207000 27.134634933929799 21.742406087929901
8.824346652414000 4.143819585155801 0.143256839167901
8.824346652414000 4.143936606438801 7.342848952174901
8.824346652414000 4.144053627721801 14.542441065181901
8.824346652414000 4.144170649004801 21.742033178188901
8.824346652414000 11.807307680130801 0.143381142414901
8.824346652414000 11.807424701413801 7.342973255421901
8.824346652414000 11.807541722696801 14.542565368428901
8.824346652414000 11.807658743979800 21.742157481435900
8.824346652414000 19.470795775105803 0.143505445661901
8.824346652414000 19.470912796388802 7.343097558668902
8.824346652414000 19.471029817671802 14.542689671675902
8.824346652414000 19.471146838954802 21.742281784682902
8.824346652414000 27.134283870080800 0.143629748908901
8.824346652414000 27.134400891363800 7.343221861915902
8.824346652414000 27.134517912646800 14.542813974922900
8.824346652414000 27.134634933929799 21.742406087929901
13.236519978621001 4.143819585155801 0.143256839167901
13.236519978621001 4.143936606438801 7.342848952174901
13.236519978621001 4.144053627721801 14.542441065181901
13.236519978621001 4.144170649004801 21.742033178188901
13.236519978621001 11.807307680130801 0.143381142414901
13.236519978621001 11.807424701413801 7.342973255421901
13.236519978621001 11.807541722696801 14.542565368428901
13.236519978621001 11.807658743979800 21.742157481435900
13.236519978621001 19.470795775105803 0.143505445661901
13.236519978621001 19.470912796388802 7.343097558668902
13.236519978621001 19.471029817671802 14.542689671675902
13.236519978621001 19.471146838954802 21.742281784682902
13.236519978621001 27.134283870080800 0.143629748908901
13.236519978621001 27.134400891363800 7.343221861915902
13.236519978621001 27.134517912646800 14.542813974922900
13.236519978621001 27.134634933929799 21.742406087929901
0.000000000000000 5.091008737909317 1.439410046069054
0.000000000000000 5.091125759192317 8.639002159076053
0.000000000000000 5.091242780475318 15.838594272083053
0.000000000000000 5.091359801758317 23.038186385090054
0.000000000000000 12.754496832884318 1.439534349316054
0.000000000000000 12.754613854167317 8.639126462323055
0.000000000000000 12.754730875450317 15.838718575330056
0.000000000000000 12.754847896733317 23.038310688337052
0.000000000000000 20.417984927859319 1.439658652563054
0.000000000000000 20.418101949142319 8.639250765570054
0.000000000000000 20.418218970425318 15.838842878577054
0.000000000000000 20.418335991708318 23.038434991584055
0.000000000000000 28.081473022834317 1.439782955810054
0.000000000000000 28.081590044117316 8.639375068817055
0.000000000000000 28.081707065400316 15.838967181824053
0.000000000000000 28.081824086683316 23.038559294831053
4.412173326207000 5.091008737909317 1.439410046069054
4.412173326207000 5.091125759192317 8.639002159076053
4.412173326207000 5.091242780475318 15.838594272083053
4.412173326207000 5.091359801758317 23.038186385090054
4.412173326207000 12.754496832884318 1.439534349316054
4.412173326207000 12.754613854167317 8.639126462323055
4.412173326207000 12.754730875450317 15.838718575330056
4.412173326207000 12.754847896733317 23.038310688337052
4.412173326207000 20.417984927859319 1.439658652563054
4.412173326207000 20.418101949142319 8.639250765570054
4.412173326207000 20.418218970425318 15.838842878577054
4.412173326207000 20.418335991708318 23.038434991584055
4.412173326207000 28.081473022834317 1.439782955810054
4.412173326207000 28.081590044117316 8.639375068817055
4.412173326207000 28.081707065400316 15.838967181824053
4.412173326207000 28.081824086683316 23.038559294831053
8.824346652414000 5.091008737909317 1.439410046069054
8.824346652414000 5.091125759192317 8.639002159076053
8.824346652414000 5.091242780475318 15.838594272083053
8.824346652414000 5.091359801758317 23.038186385090054
8.824346652414000 12.754496832884318 1.439534349316054
8.824346652414000 12.754613854167317 8.639126462323055
8.824346652414000 12.754730875450317 15.838718575330056
8.824346652414000 12.754847896733317 23.038310688337052
8.824346652414000 20.417984927859319 1.439658652563054
8.824346652414000 20.418101949142319 8.639250765570054
8.824346652414000 20.418218970425318 15.838842878577054
8.824346652414000 20.418335991708318 23.038434991584055
8.824346652414000 28.081473022834317 1.439782955810054
8.824346652414000 28.081590044117316 8.639375068817055
8.824346652414000 28.081707065400316 15.838967181824053
8.824346652414000 28.081824086683316 23.038559294831053
13.236519978621001 5.091008737909317 1.439410046069054
13.236519978621001 5.091125759192317 8.639002159076053
13.236519978621001 5.091242780475318 15.838594272083053
13.236519978621001 5.091359801758317 23.038186385090054
13.236519978621001 12.754496832884318 1.439534349316054
13.236519978621001 12.754613854167317 8.639126462323055
13.236519978621001 12.754730875450317 15.838718575330056
13.236519978621001 12.754847896733317 23.038310688337052
13.236519978621001 20.417984927859319 1.439658652563054
13.236519978621001 20.418101949142319 8.639250765570054
13.236519978621001 20.418218970425318 15.838842878577054
13.236519978621001 20.418335991708318 23.038434991584055
13.236519978621001 28.081473022834317 1.439782955810054
13.236519978621001 28.081590044117316 8.639375068817055
13.236519978621001 28.081707065400316 15.838967181824053
13.236519978621001 28.081824086683316 23.038559294831053
0.000000000000000 3.519747177079960 3.743027963746334
0.000000000000000 3.519864198362960 10.942620076753334
0.000000000000000 3.519981219645960 18.142212189760336
0.000000000000000 3.520098240928960 25.341804302767336
0.000000000000000 11.183235272054961 3.743152266993334
0.000000000000000 11.183352293337961 10.942744380000335
0.000000000000000 11.183469314620961 18.142336493007335
0.000000000000000 11.183586335903961 25.341928606014335
0.000000000000000 18.846723367029959 3.743276570240334
0.000000000000000 18.846840388312962 10.942868683247333
0.000000000000000 18.846957409595959 18.142460796254333
0.000000000000000 18.847074430878962 25.342052909261334
0.000000000000000 26.510211462004960 3.743400873487334
0.000000000000000 26.510328483287960 10.942992986494335
0.000000000000000 26.510445504570960 18.142585099501332
0.000000000000000 26.510562525853960 25.342177212508332
4.412173326207000 3.519747177079960 3.743027963746334
4.412173326207000 3.519864198362960 10.942620076753334
4.412173326207000 3.519981219645960 18.142212189760336
4.412173326207000 3.520098240928960 25.341804302767336
4.412173326207000 11.183235272054961 3.743152266993334
4.412173326207000 11.183352293337961 10.942744380000335
4.412173326207000 11.183469314620961 18.142336493007335
4.412173326207000 11.183586335903961 25.341928606014335
4.412173326207000 18.846723367029959 3.743276570240334
4.412173326207000 18.846840388312962 10.942868683247333
4.412173326207000 18.846957409595959 18.142460796254333
4.412173326207000 18.847074430878962 25.342052909261334
4.412173326207000 26.510211462004960 3.743400873487334
4.412173326207000 26.510328483287960 10.942992986494335
4.412173326207000 26.510445504570960 18.142585099501332
4.412173326207000 26.510562525853960 25.342177212508332
8.824346652414000 3.519747177079960 3.743027963746334
8.824346652414000 3.519864198362960 10.942620076753334
8.824346652414000 3.519981219645960 18.142212189760336
8.824346652414000 3.520098240928960 25.341804302767336
8.824346652414000 11.183235272054961 3.743152266993334
8.824346652414000 11.183352293337961 10.942744380000335
8.824346652414000 11.183469314620961 18.142336493007335
8.824346652414000 11.183586335903961 25.341928606014335
8.824346652414000 18.846723367029959 3.743276570240334
8.824346652414000 18.846840388312962 10.942868683247333
8.824346652414000 18.846957409595959 18.142460796254333
8.824346652414000 18.847074430878962 25.342052909261334
8.824346652414000 26.510211462004960 3.743400873487334
8.824346652414000 26.510328483287960 10.942992986494335
8.824346652414000 26.510445504570960 18.142585099501332
8.824346652414000 26.510562525853960 25.342177212508332
13.236519978621001 3.519747177079960 3.743027963746334
13.236519978621001 3.519864198362960 10.942620076753334
13.236519978621001 3.519981219645960 18.142212189760336
13.236519978621001 3.520098240928960 25.341804302767336
13.236519978621001 11.183235272054961 3.743152266993334
13.236519978621001 11.183352293337961 10.942744380000335
13.236519978621001 11.183469314620961 18.142336493007335
13.236519978621001 11.183586335903961 25.341928606014335
13.236519978621001 18.846723367029959 3.743276570240334
13.236519978621001 18.846840388312962 10.942868683247333
13.236519978621001 18.846957409595959 18.142460796254333
13.236519978621001 18.847074430878962 25.342052909261334
13.236519978621001 26.510211462004960 3.743400873487334
13.236519978621001 26.510328483287960 10.942992986494335
13.236519978621001 26.510445504570960 18.142585099501332
13.236519978621001 26.510562525853960 25.342177212508332
0.000000000000000 2.572532211461262 5.039116197894220
0.000000000000000 2.572649232744262 12.238708310901220
0.000000000000000 2.572766254027262 19.438300423908220
0.000000000000000 2.572883275310262 26.637892536915221
0.000000000000000 10.236020306436263 5.039240501141220
0.000000000000000 10.236137327719263 12.238832614148221
0.000000000000000 10.236254349002262 19.438424727155223
0.000000000000000 10.236371370285262 26.638016840162219
0.000000000000000 17.899508401411264 5.039364804388220
0.000000000000000 17.899625422694264 12.238956917395221
0.000000000000000 17.899742443977264 19.438549030402221
0.000000000000000 17.899859465260263 26.638141143409221
0.000000000000000 25.562996496386262 5.039489107635220
0.000000000000000 25.563113517669262 12.239081220642220
0.000000000000000 25.563230538952261 19.438673333649220
0.000000000000000 25.563347560235261 26.638265446656220
4.412173326207000 2.572532211461262 5.039116197894220
4.412173326207000 2.572649232744262 12.238708310901220
4.412173326207000 2.572766254027262 19.438300423908220
4.412173326207000 2.572883275310262 26.637892536915221
4.412173326207000 10.236020306436263 5.039240501141220
4.412173326207000 10.236137327719263 12.238832614148221
4.412173326207000 10.236254349002262 19.438424727155223
4.412173326207000 10.236371370285262 26.638016840162219
4.412173326207000 17.899508401411264 5.039364804388220
4.412173326207000 17.899625422694264 12.238956917395221
4.412173326207000 17.899742443977264 19.438549030402221
4.412173326207000 17.899859465260263 26.638141143409221
4.412173326207000 25.562996496386262 5.039489107635220
4.412173326207000 25.563113517669262 12.239081220642220
4.412173326207000 25.563230538952261 19.438673333649220
4.412173326207000 25.563347560235261 26.638265446656220
8.824346652414000 2.572532211461262 5.039116197894220
8.824346652414000 2.572649232744262 12.238708310901220
8.824346652414000 2.572766254027262 19.438300423908220
8.824346652414000 2.572883275310262 26.637892536915221
8.824346652414000 10.236020306436263 5.039240501141220
8.824346652414000 10.236137327719263 12.238832614148221
8.824346652414000 10.236254349002262 19.438424727155223
8.824346652414000 10.236371370285262 26.638016840162219
8.824346652414000 17.899508401411264 5.039364804388220
8.824346652414000 17.899625422694264 12.238956917395221
8.824346652414000 17.899742443977264 19.438549030402221
8.824346652414000 17.899859465260263 26.638141143409221
8.824346652414000 25.562996496386262 5.039489107635220
8.824346652414000 25.563113517669262 12.239081220642220
8.824346652414000 25.563230538952261 19.438673333649220
8.824346652414000 25.563347560235261 26.638265446656220
13.236519978621001 2.572532211461262 5.039116197894220
13.236519978621001 2.572649232744262 12.238708310901220
13.236519978621001 2.572766254027262 19.438300423908220
13.236519978621001 2.572883275310262 26.637892536915221
13.236519978621001 10.236020306436263 5.039240501141220
13.236519978621001 10.236137327719263 12.238832614148221
13.236519978621001 10.236254349002262 19.438424727155223
13.236519978621001 10.236371370285262 26.638016840162219
13.236519978621001 17.899508401411264 5.039364804388220
13.236519978621001 17.899625422694264 12.238956917395221
13.236519978621001 17.899742443977264 19.438549030402221
13.236519978621001 17.899859465260263 26.638141143409221
13.236519978621001 25.562996496386262 5.039489107635220
13.236519978621001 25.563113517669262 12.239081220642220
13.236519978621001 25.563230538952261 19.438673333649220
13.236519978621001 25.563347560235261 26.638265446656220
2.206082624694201 1.259266420629354 1.439369040014030
2.206082624694201 1.259383441912354 8.638961153021031
2.206082624694201 1.259500463195354 15.838553266028031
2.206082624694201 1.259617484478354 23.038145379035029
2.206082624694201 8.922754515604355 1.439493343261030
2.206082624694201 8.922871536887355 8.639085456268031
2.206082624694201 8.922988558170355 15.838677569275031
2.206082624694201 8.923105579453354 23.038269682282028
2.206082624694201 16.586242610579355 1.439617646508030
2.206082624694201 16.586359631862354 8.639209759515030
2.206082624694201 16.586476653145354 15.838801872522032
2.206082624694201 16.586593674428354 23.038393985529030
2.206082624694201 24.249730705554356 1.439741949755030
2.206082624694201 24.249847726837356 8.639334062762030
2.206082624694201 24.249964748120355 15.838926175769030
2.206082624694201 24.250081769403355 23.038518288776029
6.618255950901201 1.259266420629354 1.439369040014030
6.618255950901201 1.259383441912354 8.638961153021031
6.618255950901201 1.259500463195354 15.838553266028031
6.618255950901201 1.259617484478354 23.038145379035029
6.618255950901201 8.922754515604355 1.439493343261030
6.618255950901201 8.922871536887355 8.639085456268031
6.618255950901201 8.922988558170355 15.838677569275031
6.618255950901201 8.923105579453354 23.038269682282028
6.618255950901201 16.586242610579355 1.439617646508030
6.618255950901201 16.586359631862354 8.639209759515030
6.618255950901201 16.586476653145354 15.838801872522032
6.618255950901201 16.586593674428354 23.038393985529030
6.618255950901201 24.249730705554356 1.439741949755030
6.618255950901201 24.249847726837356 8.639334062762030
6.618255950901201 24.249964748120355 15.838926175769030
6.618255950901201 24.250081769403355 23.038518288776029
11.030429277108201 1.259266420629354 1.439369040014030
11.030429277108201 1.259383441912354 8.638961153021031
11.030429277108201 1.259500463195354 15.838553266028031
11.030429277108201 1.259617484478354 23.038145379035029
11.030429277108201 8.922754515604355 1.439493343261030
11.030429277108201 8.922871536887355 8.639085456268031
11.030429277108201 8.922988558170355 15.838677569275031
11.030429277108201 8.923105579453354 23.038269682282028
11.030429277108201 16.586242610579355 1.439617646508030
11.030429277108201 16.586359631862354 8.639209759515030
11.030429277108201 16.586476653145354 15.838801872522032
11.030429277108201 16.586593674428354 23.038393985529030
11.030429277108201 24.249730705554356 1.439741949755030
11.030429277108201 24.249847726837356 8.639334062762030
11.030429277108201 24.249964748120355 15.838926175769030
11.030429277108201 24.250081769403355 23.038518288776029
15.442602603315201 1.259266420629354 1.439369040014030
15.442602603315201 1.259383441912354 8.638961153021031
15.442602603315201 1.259500463195354 15.838553266028031
15.442602603315201 1.259617484478354 23.038145379035029
15.442602603315201 8.922754515604355 1.439493343261030
15.442602603315201 8.922871536887355 8.639085456268031
15.442602603315201 8.922988558170355 15.838677569275031
15.442602603315201 8.923105579453354 23.038269682282028
15.442602603315201 16.586242610579355 1.439617646508030
15.442602603315201 16.586359631862354 8.639209759515030
15.442602603315201 16.586476653145354 15.838801872522032
15.442602603315201 16.586593674428354 23.038393985529030
15.442602603315201 24.249730705554356 1.439741949755030
15.442602603315201 24.249847726837356 8.639334062762030
15.442602603315201 24.249964748120355 15.838926175769030
15.442602603315201 24.250081769403355 23.038518288776029
2.206082624694201 0.312102005642591 0.143229293101182
2.206082624694201 0.312219026925591 7.342821406108182
2.206082624694201 0.312336048208591 14.542413519115183
2.206082624694201 0.312453069491591 21.742005632122183
2.206082624694201 7.975590100617591 0.143353596348182
2.206082624694201 7.975707121900591 7.342945709355183
2.206082624694201 7.975824143183591 14.542537822362183
2.206082624694201 7.975941164466591 21.742129935369181
2.206082624694201 15.639078195592592 0.143477899595182
2.206082624694201 15.639195216875592 7.343070012602182
2.206082624694201 15.639312238158592 14.542662125609183
2.206082624694201 15.639429259441592 21.742254238616184
2.206082624694201 23.302566290567590 0.143602202842182
2.206082624694201 23.302683311850590 7.343194315849183
2.206082624694201 23.302800333133590 14.542786428856182
2.206082624694201 23.302917354416589 21.742378541863182
6.618255950901201 0.312102005642591 0.143229293101182
6.618255950901201 0.312219026925591 7.342821406108182
6.618255950901201 0.312336048208591 14.542413519115183
6.618255950901201 0.312453069491591 21.742005632122183
6.618255950901201 7.975590100617591 0.143353596348182
6.618255950901201 7.975707121900591 7.342945709355183
6.618255950901201 7.975824143183591 14.542537822362183
6.618255950901201 7.975941164466591 21.742129935369181
6.618255950901201 15.639078195592592 0.143477899595182
6.618255950901201 15.639195216875592 7.343070012602182
6.618255950901201 15.639312238158592 14.542662125609183
6.618255950901201 15.639429259441592 21.742254238616184
6.618255950901201 23.302566290567590 0.143602202842182
6.618255950901201 23.302683311850590 7.343194315849183
6.618255950901201 23.302800333133590 14.542786428856182
6.618255950901201 23.302917354416589 21.742378541863182
11.030429277108201 0.312102005642591 0.143229293101182
11.030429277108201 0.312219026925591 7.342821406108182
11.030429277108201 0.312336048208591 14.542413519115183
11.030429277108201 0.312453069491591 21.742005632122183
11.030429277108201 7.975590100617591 0.143353596348182
11.030429277108201 7.975707121900591 7.342945709355183
11.030429277108201 7.975824143183591 14.542537822362183
11.030429277108201 7.975941164466591 21.742129935369181
11.030429277108201 15.639078195592592 0.143477899595182
11.030429277108201 15.639195216875592 7.343070012602182
11.030429277108201 15.639312238158592 14.542662125609183
11.030429277108201 15.639429259441592 21.742254238616184
11.030429277108201 23.302566290567590 0.143602202842182
11.030429277108201 23.302683311850590 7.343194315849183
11.030429277108201 23.302800333133590 14.542786428856182
11.030429277108201 23.302917354416589 21.742378541863182
15.442602603315201 0.312102005642591 0.143229293101182
15.442602603315201 0.312219026925591 7.342821406108182
15.442602603315201 0.312336048208591 14.542413519115183
15.442602603315201 0.312453069491591 21.742005632122183
15.442602603315201 7.975590100617591 0.143353596348182
15.442602603315201 7.975707121900591 7.342945709355183
15.442602603315201 7.975824143183591 14.542537822362183
15.442602603315201 7.975941164466591 21.742129935369181
15.442602603315201 15.639078195592592 0.143477899595182
15.442602603315201 15.639195216875592 7.343070012602182
15.442602603315201 15.639312238158592 14.542662125609183
15.442602603315201 15.639429259441592 21.742254238616184
15.442602603315201 23.302566290567590 0.143602202842182
15.442602603315201 23.302683311850590 7.343194315849183
15.442602603315201 23.302800333133590 14.542786428856182
15.442602603315201 23.302917354416589 21.742378541863182
2.206082624694201 6.404225698282535 5.039269416201437
2.206082624694201 6.404342719565535 12.238861529208437
2.206082624694201 6.404459740848536 19.438453642215435
2.206082624694201 6.404576762131535 26.638045755222436
2.206082624694201 14.067713793257536 5.039393719448437
2.206082624694201 14.067830814540535 12.238985832455437
2.206082624694201 14.067947835823535 19.438577945462438
2.206082624694201 14.068064857106535 26.638170058469434
2.206082624694201 21.731201888232537 5.039518022695437
2.206082624694201 21.731318909515537 12.239110135702436
2.206082624694201 21.731435930798536 19.438702248709440
2.206082624694201 21.731552952081536 26.638294361716440
2.206082624694201 29.394689983207535 5.039642325942437
2.206082624694201 29.394807004490534 12.239234438949438
2.206082624694201 29.394924025773534 19.438826551956438
2.206082624694201 29.395041047056534 26.638418664963439
6.618255950901201 6.404225698282535 5.039269416201437
6.618255950901201 6.404342719565535 12.238861529208437
6.618255950901201 6.404459740848536 19.438453642215435
6.618255950901201 6.404576762131535 26.638045755222436
6.618255950901201 14.067713793257536 5.039393719448437
6.618255950901201 14.067830814540535 12.238985832455437
6.618255950901201 14.067947835823535 19.438577945462438
6.618255950901201 14.068064857106535 26.638170058469434
6.618255950901201 21.731201888232537 5.039518022695437
6.618255950901201 21.731318909515537 12.239110135702436
6.618255950901201 21.731435930798536 19.438702248709440
6.618255950901201 21.731552952081536 26.638294361716440
6.618255950901201 29.394689983207535 5.039642325942437
6.618255950901201 29.394807004490534 12.239234438949438
6.618255950901201 29.394924025773534 19.438826551956438
6.618255950901201 29.395041047056534 26.638418664963439
11.030429277108201 6.404225698282535 5.039269416201437
11.030429277108201 6.404342719565535 12.238861529208437
11.030429277108201 6.404459740848536 19.438453642215435
11.030429277108201 6.404576762131535 26.638045755222436
11.030429277108201 14.067713793257536 5.039393719448437
11.030429277108201 14.067830814540535 12.238985832455437
11.030429277108201 14.067947835823535 19.438577945462438
11.030429277108201 14.068064857106535 26.638170058469434
11.030429277108201 21.731201888232537 5.039518022695437
11.030429277108201 21.731318909515537 12.239110135702436
11.030429277108201 21.731435930798536 19.438702248709440
11.030429277108201 21.731552952081536 26.638294361716440
11.030429277108201 29.394689983207535 5.039642325942437
11.030429277108201 29.394807004490534 12.239234438949438
11.030429277108201 29.394924025773534 19.438826551956438
11.030429277108201 29.395041047056534 26.638418664963439
15.442602603315201 6.404225698282535 5.039269416201437
15.442602603315201 6.404342719565535 12.238861529208437
15.442602603315201 6.404459740848536 19.438453642215435
15.442602603315201 6.404576762131535 26.638045755222436
15.442602603315201 14.067713793257536 5.039393719448437
15.442602603315201 14.067830814540535 12.238985832455437
15.442602603315201 14.067947835823535 19.438577945462438
15.442602603315201 14.068064857106535 26.638170058469434
15.442602603315201 21.731201888232537 5.039518022695437
15.442602603315201 21.731318909515537 12.239110135702436
15.442602603315201 21.731435930798536 19.438702248709440
15.442602603315201 21.731552952081536 26.638294361716440
15.442602603315201 29.394689983207535 5.039642325942437
15.442602603315201 29.394807004490534 12.239234438949438
15.442602603315201 29.394924025773534 19.438826551956438
15.442602603315201 29.395041047056534 26.638418664963439
2.206082624694201 7.351446144936878 3.743164311381458
2.206082624694201 7.351563166219877 10.942756424388458
2.206082624694201 7.351680187502878 18.142348537395460
2.206082624694201 7.351797208785878 25.341940650402460
2.206082624694201 15.014934239911877 3.743288614628458
2.206082624694201 15.015051261194877 10.942880727635458
2.206082624694201 15.015168282477878 18.142472840642458
2.206082624694201 15.015285303760878 25.342064953649459
2.206082624694201 22.678422334886879 3.743412917875458
2.206082624694201 22.678539356169878 10.943005030882459
2.206082624694201 22.678656377452878 18.142597143889461
2.206082624694201 22.678773398735878 25.342189256896461
2.206082624694201 30.341910429861876 3.743537221122458
2.206082624694201 30.342027451144880 10.943129334129459
2.206082624694201 30.342144472427876 18.142721447136459
2.206082624694201 30.342261493710879 25.342313560143459
6.618255950901201 7.351446144936878 3.743164311381458
6.618255950901201 7.351563166219877 10.942756424388458
6.618255950901201 7.351680187502878 18.142348537395460
6.618255950901201 7.351797208785878 25.341940650402460
6.618255950901201 15.014934239911877 3.743288614628458
6.618255950901201 15.015051261194877 10.942880727635458
6.618255950901201 15.015168282477878 18.142472840642458
6.618255950901201 15.015285303760878 25.342064953649459
6.618255950901201 22.678422334886879 3.743412917875458
6.618255950901201 22.678539356169878 10.943005030882459
6.618255950901201 22.678656377452878 18.142597143889461
6.618255950901201 22.678773398735878 25.342189256896461
6.618255950901201 30.341910429861876 3.743537221122458
6.618255950901201 30.342027451144880 10.943129334129459
6.618255950901201 30.342144472427876 18.142721447136459
6.618255950901201 30.342261493710879 25.342313560143459
11.030429277108201 7.351446144936878 3.743164311381458
11.030429277108201 7.351563166219877 10.942756424388458
11.030429277108201 7.351680187502878 18.142348537395460
11.030429277108201 7.351797208785878 25.341940650402460
11.030429277108201 15.014934239911877 3.743288614628458
11.030429277108201 15.015051261194877 10.942880727635458
11.030429277108201 15.015168282477878 18.142472840642458
11.030429277108201 15.015285303760878 25.342064953649459
11.030429277108201 22.678422334886879 3.743412917875458
11.030429277108201 22.678539356169878 10.943005030882459
11.030429277108201 22.678656377452878 18.142597143889461
11.030429277108201 22.678773398735878 25.342189256896461
11.030429277108201 30.341910429861876 3.743537221122458
11.030429277108201 30.342027451144880 10.943129334129459
11.030429277108201 30.342144472427876 18.142721447136459
11.030429277108201 30.342261493710879 25.342313560143459
15.442602603315201 7.351446144936878 3.743164311381458
15.442602603315201 7.351563166219877 10.942756424388458
15.442602603315201 7.351680187502878 18.142348537395460
15.442602603315201 7.351797208785878 25.341940650402460
15.442602603315201 15.014934239911877 3.743288614628458
15.442602603315201 15.015051261194877 10.942880727635458
15.442602603315201 15.015168282477878 18.142472840642458
15.442602603315201 15.015285303760878 25.342064953649459
15.442602603315201 22.678422334886879 3.743412917875458
15.442602603315201 22.678539356169878 10.943005030882459
15.442602603315201 22.678656377452878 18.142597143889461
15.442602603315201 22.678773398735878 25.342189256896461
15.442602603315201 30.341910429861876 3.743537221122458
15.442602603315201 30.342027451144880 10.943129334129459
15.442602603315201 30.342144472427876 18.142721447136459
15.442602603315201 30.342261493710879 25.342313560143459
1.405062488307225 5.886544803098435 7.082481702953350
1.405062488307225 5.886661824381434 14.282073815960350
1.405062488307225 5.886778845664435 21.481665928967352
1.405062488307225 5.886895866947435 28.681258041974353
1.405062488307225 13.550032898073436 7.082606006200351
1.405062488307225 13.550149919356436 14.282198119207351
1.405062488307225 13.550266940639435 21.481790232214351
1.405062488307225 13.550383961922435 28.681382345221351
1.405062488307225 21.213520993048434 7.082730309447350
1.405062488307225 21.213638014331437 14.282322422454349
1.405062488307225 21.213755035614433 21.481914535461350
1.405062488307225 21.213872056897436 28.681506648468350
1.405062488307225 28.877009088023435 7.082854612694351
1.405062488307225 28.877126109306435 14.282446725701352
1.405062488307225 28.877243130589434 21.482038838708348
1.405062488307225 28.877360151872434 28.681630951715348
5.817235814514225 5.886544803098435 7.082481702953350
5.817235814514225 5.886661824381434 14.282073815960350
5.817235814514225 5.886778845664435 21.481665928967352
5.817235814514225 5.886895866947435 28.681258041974353
5.817235814514225 13.550032898073436 7.082606006200351
5.817235814514225 13.550149919356436 14.282198119207351