DMC-ICE13 ice XVII; Cartesian 2x2x2 supercell
1.0
6.232882738179121 10.752349190520000 -0.040829816338000
-6.199080099583042 10.773204536568000 -0.058611368388000
-0.017441162209350 0.055293675010000 11.885618629412001
H O
96 48
Cartesian
2.448686728446079 5.647847862745304 1.136540975676218
2.439966147341404 5.675494700250304 7.079350290382219
-0.650853321345441 11.034450131029304 1.107235291482218
-0.659573902450116 11.062096968534306 7.050044606188218
5.565128097535641 11.024022458005305 1.116126067507218
5.556407516430966 11.051669295510305 7.058935382213218
2.465588047744119 16.410624726289306 1.086820383313218
2.456867466639444 16.438271563794306 7.029629698019218
-2.906472764828315 5.097306504470466 3.112551681508873
-2.915193345932990 5.124953341975466 9.055360996214873
-6.006012814619836 10.483908772754466 3.083245997314873
-6.014733395724511 10.511555610259467 9.026055312020873
0.209968604261246 10.473481099730467 3.092136773339873
0.201248023156571 10.501127937235466 9.034946088045874
-2.889571445530275 15.860083368014468 3.062831089145873
-2.898292026634949 15.887730205519468 9.005640403851874
0.252214390564143 0.753547956079230 5.118155151367717
0.243493809459468 0.781194793584230 11.060964466073717
-2.847325659227378 6.140150224363230 5.088849467173717
-2.856046240332053 6.167797061868231 11.031658781879717
3.368655759653704 6.129722551339230 5.097740243198717
3.359935178549029 6.157369388844231 11.040549557904718
0.269115709862183 11.516324819623232 5.068434559004717
0.260395128757508 11.543971657128232 11.011243873710718
2.038881907769003 4.154625516557047 1.532720868226767
2.030161326664328 4.182272354062047 7.475530182932768
-1.060658142022518 9.541227784841048 1.503415184032767
-1.069378723127194 9.568874622346048 7.446224498738768
5.155323276858562 9.530800111817047 1.512305960057768
5.146602695753888 9.558446949322047 7.455115274763767
2.055783227067043 14.917402380101048 1.483000275863767
2.047062645962368 14.945049217606048 7.425809590569767
-1.407460085914969 5.490504049025038 3.502873169000408
-1.416180667019644 5.518150886530038 9.445682483706408
-4.507000135706490 10.877106317309039 3.473567484806408
-4.515720716811165 10.904753154814038 9.416376799512408
1.708981283174592 10.866678644285038 3.482458260831407
1.700260702069917 10.894325481790037 9.425267575537408
-1.390558766616929 16.253280912569039 3.453152576637407
-1.399279347721604 16.280927750074039 9.395961891343408
-0.837759471022503 1.857654470505858 5.501496756265968
-0.846480052127178 1.885301308010858 11.444306070971969
-3.937299520814024 7.244256738789858 5.472191072071968
-3.946020101918700 7.271903576294858 11.415000386777969
2.278681898067057 7.233829065765858 5.481081848096968
2.269961316962382 7.261475903270858 11.423891162802969
-0.820858151724463 12.620431334049860 5.451776163902968
-0.829578732829138 12.648078171554859 11.394585478608969
0.717220349174466 5.824670091825422 2.538224208004126
0.708499768069791 5.852316929330422 8.481033522710128
-2.382319700617055 11.211272360109422 2.508918523810126
-2.391040281721731 11.238919197614422 8.451727838516128
3.833661718264026 11.200844687085421 2.517809299835126
3.824941137159352 11.228491524590423 8.460618614541126
0.734121668472506 16.587446955369423 2.488503615641126
0.725401087367831 16.615093792874422 8.431312930347126
0.923767076480286 8.896542456136281 4.505184581867880
0.915046495375611 8.924189293641280 10.447993896573880
-2.175772973311234 14.283144724420282 4.475878897673880
-2.184493554415910 14.310791561925281 10.418688212379880
4.040208445569847 14.272717051396281 4.484769673698880
4.031487864465172 14.300363888901281 10.427578988404880
0.940668395778326 19.659319319680282 4.455463989504880
0.931947814673652 19.686966157185282 10.398273304210880
-1.826712191807489 7.529512060820658 0.546014179415357
-1.835432772912164 7.557158898325659 6.488823494121357
-4.926252241599011 12.916114329104659 0.516708495221357
-4.934972822703687 12.943761166609658 6.459517809927357
1.289729177282071 12.905686656080658 0.525599271246357
1.281008596177396 12.933333493585659 6.468408585952357
-1.809810872509449 18.292288924364659 0.496293587052357
-1.818531453614124 18.319935761869658 6.439102901758357
-0.663185117917499 7.340277832327126 1.630596766133060
-0.671905699022174 7.367924669832126 7.573406080839060
-3.762725167709019 12.726880100611126 1.601291081939060
-3.771445748813695 12.754526938116125 7.544100396645060
2.453256251172061 12.716452427587125 1.610181857964060
2.444535670067387 12.744099265092126 7.552991172670060
-0.646283798619459 18.103054695871126 1.580876173770060
-0.655004379724134 18.130701533376126 7.523685488476060
0.300534889868989 6.935217472820593 3.614728761766080
0.291814308764314 6.962864310325593 9.557538076472081
-2.799005159922532 12.321819741104594 3.585423077572080
-2.807725741027208 12.349466578609594 9.528232392278081
3.416976258958549 12.311392068080593 3.594313853597080
3.408255677853874 12.339038905585593 9.537123168303081
0.317436209167029 17.697994336364594 3.565008169403080
0.308715628062354 17.725641173869594 9.507817484109081
0.172957854189250 7.988958098801410 5.590652401835019
0.164237273084575 8.016604936306409 11.533461716541019
-2.926582195602271 13.375560367085409 5.561346717641019
-2.935302776706946 13.403207204590410 11.504156032347019
3.289399223278810 13.365132694061410 5.570237493666019
3.280678642174135 13.392779531566411 11.513046808372019
0.189859173487290 18.751734962345409 5.540931809472019
0.181138592382615 18.779381799850412 11.483741124178019
-0.077766893913906 1.323933249602572 5.872738707363856
-0.086487475018581 1.351580087107572 11.815548022069857
-3.177306943705427 6.710535517886573 5.843433023169856
-3.186027524810103 6.738182355391573 11.786242337875857
3.038674475175655 6.700107844862573 5.852323799194856
3.029953894070980 6.727754682367573 11.795133113900857
-0.060865574615866 12.086710113146573 5.823018115000856
-0.069586155720541 12.114356950651572 11.765827429706857
2.121352771889329 5.082768049158548 1.896254253800760
2.112632190784654 5.110414886663548 7.839063568506761
-0.978187277902192 10.469370317442548 1.866948569606760
-0.986907859006867 10.497017154947549 7.809757884312761
5.237794140978891 10.458942644418549 1.875839345631760
5.229073559874214 10.486589481923549 7.818648660337761
2.138254091187369 15.845544912702550 1.846533661437760
2.129533510082694 15.873191750207550 7.789342976143761
-2.252301256700383 5.102269194974025 3.871260113836954
-2.261021837805058 5.129916032479025 9.814069428542954
-5.351841306491903 10.488871463258025 3.841954429642954
-5.360561887596579 10.516518300763025 9.784763744348954
0.864140112389179 10.478443790234024 3.850845205667954
0.855419531284503 10.506090627739026 9.793654520373954
-2.235399937402343 15.865046058518026 3.821539521473954
-2.244120518507017 15.892692896023025 9.764348836179954
-0.059777533945180 6.347952971993556 2.888144789503635
-0.068498115049855 6.375599809498556 8.830954104209635
-3.159317583736701 11.734555240277556 2.858839105309635
-3.168038164841376 11.762202077782558 8.801648420015635
3.056663835144380 11.724127567253557 2.867729881334635
3.047943254039705 11.751774404758557 8.810539196040635
-0.042876214647140 17.110729835537558 2.838424197140635
-0.051596795751815 17.138376673042558 8.781233511846635
0.860045607225411 7.964741187451218 4.862726180546602
0.851325026120736 7.992388024956218 10.805535495252602
-2.239494442566109 13.351343455735218 4.833420496352602
-2.248215023670785 13.378990293240218 10.776229811058602
3.976486976314972 13.340915782711217 4.842311272377602
3.967766395210297 13.368562620216219 10.785120587083602
0.876946926523451 18.727518050995219 4.813005588183602
0.868226345418776 18.755164888500218 10.755814902889602
-0.986738344916966 7.941993938213103 0.898546988891357
-0.995458926021641 7.969640775718103 6.841356303597357
-4.086278394708486 13.328596206497103 0.869241304697357
-4.094998975813162 13.356243044002102 6.812050619403357
2.129703024172595 13.318168533473102 0.878132080722357
2.120982443067920 13.345815370978103 6.820941395428357
-0.969837025618926 18.704770801757103 0.848826396528357
-0.978557606723601 18.732417639262103 6.791635711234357
