DMC-ICE13 ice XIV; Cartesian 4x4x4 supercell
1.0
33.472448000000000 0.000000000000000 0.000000000000000
0.000000000000000 32.627408000000003 0.000000000000000
0.000000000000000 0.000000000000000 16.365615999999999
H O
1536 768
Cartesian
4.457852256528001 6.825074617108000 1.974941167820000
4.457852256528001 6.825074617108000 6.066345167820000
4.457852256528001 6.825074617108000 10.157749167820000
4.457852256528001 6.825074617108000 14.249153167819998
4.457852256528001 14.981926617108002 1.974941167820000
4.457852256528001 14.981926617108002 6.066345167820000
4.457852256528001 14.981926617108002 10.157749167820000
4.457852256528001 14.981926617108002 14.249153167819998
4.457852256528001 23.138778617108002 1.974941167820000
4.457852256528001 23.138778617108002 6.066345167820000
4.457852256528001 23.138778617108002 10.157749167820000
4.457852256528001 23.138778617108002 14.249153167819998
4.457852256528001 31.295630617108003 1.974941167820000
4.457852256528001 31.295630617108003 6.066345167820000
4.457852256528001 31.295630617108003 10.157749167820000
4.457852256528001 31.295630617108003 14.249153167819998
12.825964256528001 6.825074617108000 1.974941167820000
12.825964256528001 6.825074617108000 6.066345167820000
12.825964256528001 6.825074617108000 10.157749167820000
12.825964256528001 6.825074617108000 14.249153167819998
12.825964256528001 14.981926617108002 1.974941167820000
12.825964256528001 14.981926617108002 6.066345167820000
12.825964256528001 14.981926617108002 10.157749167820000
12.825964256528001 14.981926617108002 14.249153167819998
12.825964256528001 23.138778617108002 1.974941167820000
12.825964256528001 23.138778617108002 6.066345167820000
12.825964256528001 23.138778617108002 10.157749167820000
12.825964256528001 23.138778617108002 14.249153167819998
12.825964256528001 31.295630617108003 1.974941167820000
12.825964256528001 31.295630617108003 6.066345167820000
12.825964256528001 31.295630617108003 10.157749167820000
12.825964256528001 31.295630617108003 14.249153167819998
21.194076256528000 6.825074617108000 1.974941167820000
21.194076256528000 6.825074617108000 6.066345167820000
21.194076256528000 6.825074617108000 10.157749167820000
21.194076256528000 6.825074617108000 14.249153167819998
21.194076256528000 14.981926617108002 1.974941167820000
21.194076256528000 14.981926617108002 6.066345167820000
21.194076256528000 14.981926617108002 10.157749167820000
21.194076256528000 14.981926617108002 14.249153167819998
21.194076256528000 23.138778617108002 1.974941167820000
21.194076256528000 23.138778617108002 6.066345167820000
21.194076256528000 23.138778617108002 10.157749167820000
21.194076256528000 23.138778617108002 14.249153167819998
21.194076256528000 31.295630617108003 1.974941167820000
21.194076256528000 31.295630617108003 6.066345167820000
21.194076256528000 31.295630617108003 10.157749167820000
21.194076256528000 31.295630617108003 14.249153167819998
29.562188256528003 6.825074617108000 1.974941167820000
29.562188256528003 6.825074617108000 6.066345167820000
29.562188256528003 6.825074617108000 10.157749167820000
29.562188256528003 6.825074617108000 14.249153167819998
29.562188256528003 14.981926617108002 1.974941167820000
29.562188256528003 14.981926617108002 6.066345167820000
29.562188256528003 14.981926617108002 10.157749167820000
29.562188256528003 14.981926617108002 14.249153167819998
29.562188256528003 23.138778617108002 1.974941167820000
29.562188256528003 23.138778617108002 6.066345167820000
29.562188256528003 23.138778617108002 10.157749167820000
29.562188256528003 23.138778617108002 14.249153167819998
29.562188256528003 31.295630617108003 1.974941167820000
29.562188256528003 31.295630617108003 6.066345167820000
29.562188256528003 31.295630617108003 10.157749167820000
29.562188256528003 31.295630617108003 14.249153167819998
0.767774276000000 1.669055056240000 1.070446302732000
0.767774276000000 1.669055056240000 5.161850302732000
0.767774276000000 1.669055056240000 9.253254302732000
0.767774276000000 1.669055056240000 13.344658302731998
0.767774276000000 9.825907056240000 1.070446302732000
0.767774276000000 9.825907056240000 5.161850302732000
0.767774276000000 9.825907056240000 9.253254302732000
0.767774276000000 9.825907056240000 13.344658302731998
0.767774276000000 17.982759056240003 1.070446302732000
0.767774276000000 17.982759056240003 5.161850302732000
0.767774276000000 17.982759056240003 9.253254302732000
0.767774276000000 17.982759056240003 13.344658302731998
0.767774276000000 26.139611056240003 1.070446302732000
0.767774276000000 26.139611056240003 5.161850302732000
0.767774276000000 26.139611056240003 9.253254302732000
0.767774276000000 26.139611056240003 13.344658302731998
9.135886276000001 1.669055056240000 1.070446302732000
9.135886276000001 1.669055056240000 5.161850302732000
9.135886276000001 1.669055056240000 9.253254302732000
9.135886276000001 1.669055056240000 13.344658302731998
9.135886276000001 9.825907056240000 1.070446302732000
9.135886276000001 9.825907056240000 5.161850302732000
9.135886276000001 9.825907056240000 9.253254302732000
9.135886276000001 9.825907056240000 13.344658302731998
9.135886276000001 17.982759056240003 1.070446302732000
9.135886276000001 17.982759056240003 5.161850302732000
9.135886276000001 17.982759056240003 9.253254302732000
9.135886276000001 17.982759056240003 13.344658302731998
9.135886276000001 26.139611056240003 1.070446302732000
9.135886276000001 26.139611056240003 5.161850302732000
9.135886276000001 26.139611056240003 9.253254302732000
9.135886276000001 26.139611056240003 13.344658302731998
17.503998276000001 1.669055056240000 1.070446302732000
17.503998276000001 1.669055056240000 5.161850302732000
17.503998276000001 1.669055056240000 9.253254302732000
17.503998276000001 1.669055056240000 13.344658302731998
17.503998276000001 9.825907056240000 1.070446302732000
17.503998276000001 9.825907056240000 5.161850302732000
17.503998276000001 9.825907056240000 9.253254302732000
17.503998276000001 9.825907056240000 13.344658302731998
17.503998276000001 17.982759056240003 1.070446302732000
17.503998276000001 17.982759056240003 5.161850302732000
17.503998276000001 17.982759056240003 9.253254302732000
17.503998276000001 17.982759056240003 13.344658302731998
17.503998276000001 26.139611056240003 1.070446302732000
17.503998276000001 26.139611056240003 5.161850302732000
17.503998276000001 26.139611056240003 9.253254302732000
17.503998276000001 26.139611056240003 13.344658302731998
25.872110276000001 1.669055056240000 1.070446302732000
25.872110276000001 1.669055056240000 5.161850302732000
25.872110276000001 1.669055056240000 9.253254302732000
25.872110276000001 1.669055056240000 13.344658302731998
25.872110276000001 9.825907056240000 1.070446302732000
25.872110276000001 9.825907056240000 5.161850302732000
25.872110276000001 9.825907056240000 9.253254302732000
25.872110276000001 9.825907056240000 13.344658302731998
25.872110276000001 17.982759056240003 1.070446302732000
25.872110276000001 17.982759056240003 5.161850302732000
25.872110276000001 17.982759056240003 9.253254302732000
25.872110276000001 17.982759056240003 13.344658302731998
25.872110276000001 26.139611056240003 1.070446302732000
25.872110276000001 26.139611056240003 5.161850302732000
25.872110276000001 26.139611056240003 9.253254302732000
25.872110276000001 26.139611056240003 13.344658302731998
6.581319253312000 -0.210887251608000 3.711292111380000
6.581319253312000 -0.210887251608000 7.802696111380000
6.581319253312000 -0.210887251608000 11.894100111380000
6.581319253312000 -0.210887251608000 15.985504111379999
6.581319253312000 7.945964748392001 3.711292111380000
6.581319253312000 7.945964748392001 7.802696111380000
6.581319253312000 7.945964748392001 11.894100111380000
6.581319253312000 7.945964748392001 15.985504111379999
6.581319253312000 16.102816748392002 3.711292111380000
6.581319253312000 16.102816748392002 7.802696111380000
6.581319253312000 16.102816748392002 11.894100111380000
6.581319253312000 16.102816748392002 15.985504111379999
6.581319253312000 24.259668748392002 3.711292111380000
6.581319253312000 24.259668748392002 7.802696111380000
6.581319253312000 24.259668748392002 11.894100111380000
6.581319253312000 24.259668748392002 15.985504111379999
14.949431253312000 -0.210887251608000 3.711292111380000
14.949431253312000 -0.210887251608000 7.802696111380000
14.949431253312000 -0.210887251608000 11.894100111380000
14.949431253312000 -0.210887251608000 15.985504111379999
14.949431253312000 7.945964748392001 3.711292111380000
14.949431253312000 7.945964748392001 7.802696111380000
14.949431253312000 7.945964748392001 11.894100111380000
14.949431253312000 7.945964748392001 15.985504111379999
14.949431253312000 16.102816748392002 3.711292111380000
14.949431253312000 16.102816748392002 7.802696111380000
14.949431253312000 16.102816748392002 11.894100111380000
14.949431253312000 16.102816748392002 15.985504111379999
14.949431253312000 24.259668748392002 3.711292111380000
14.949431253312000 24.259668748392002 7.802696111380000
14.949431253312000 24.259668748392002 11.894100111380000
14.949431253312000 24.259668748392002 15.985504111379999
23.317543253312000 -0.210887251608000 3.711292111380000
23.317543253312000 -0.210887251608000 7.802696111380000
23.317543253312000 -0.210887251608000 11.894100111380000
23.317543253312000 -0.210887251608000 15.985504111379999
23.317543253312000 7.945964748392001 3.711292111380000
23.317543253312000 7.945964748392001 7.802696111380000
23.317543253312000 7.945964748392001 11.894100111380000
23.317543253312000 7.945964748392001 15.985504111379999
23.317543253312000 16.102816748392002 3.711292111380000
23.317543253312000 16.102816748392002 7.802696111380000
23.317543253312000 16.102816748392002 11.894100111380000
23.317543253312000 16.102816748392002 15.985504111379999
23.317543253312000 24.259668748392002 3.711292111380000
23.317543253312000 24.259668748392002 7.802696111380000
23.317543253312000 24.259668748392002 11.894100111380000
23.317543253312000 24.259668748392002 15.985504111379999
31.685655253312000 -0.210887251608000 3.711292111380000
31.685655253312000 -0.210887251608000 7.802696111380000
31.685655253312000 -0.210887251608000 11.894100111380000
31.685655253312000 -0.210887251608000 15.985504111379999
31.685655253312000 7.945964748392001 3.711292111380000
31.685655253312000 7.945964748392001 7.802696111380000
31.685655253312000 7.945964748392001 11.894100111380000
31.685655253312000 7.945964748392001 15.985504111379999
31.685655253312000 16.102816748392002 3.711292111380000
31.685655253312000 16.102816748392002 7.802696111380000
31.685655253312000 16.102816748392002 11.894100111380000
31.685655253312000 16.102816748392002 15.985504111379999
31.685655253312000 24.259668748392002 3.711292111380000
31.685655253312000 24.259668748392002 7.802696111380000
31.685655253312000 24.259668748392002 11.894100111380000
31.685655253312000 24.259668748392002 15.985504111379999
6.081525396000000 3.819176772884000 1.309196091748000
6.081525396000000 3.819176772884000 5.400600091748000
6.081525396000000 3.819176772884000 9.492004091747999
6.081525396000000 3.819176772884000 13.583408091747998
6.081525396000000 11.976028772884000 1.309196091748000
6.081525396000000 11.976028772884000 5.400600091748000
6.081525396000000 11.976028772884000 9.492004091747999
6.081525396000000 11.976028772884000 13.583408091747998
6.081525396000000 20.132880772884000 1.309196091748000
6.081525396000000 20.132880772884000 5.400600091748000
6.081525396000000 20.132880772884000 9.492004091747999
6.081525396000000 20.132880772884000 13.583408091747998
6.081525396000000 28.289732772884001 1.309196091748000
6.081525396000000 28.289732772884001 5.400600091748000
6.081525396000000 28.289732772884001 9.492004091747999
6.081525396000000 28.289732772884001 13.583408091747998
14.449637396000000 3.819176772884000 1.309196091748000
14.449637396000000 3.819176772884000 5.400600091748000
14.449637396000000 3.819176772884000 9.492004091747999
14.449637396000000 3.819176772884000 13.583408091747998
14.449637396000000 11.976028772884000 1.309196091748000
14.449637396000000 11.976028772884000 5.400600091748000
14.449637396000000 11.976028772884000 9.492004091747999
14.449637396000000 11.976028772884000 13.583408091747998
14.449637396000000 20.132880772884000 1.309196091748000
14.449637396000000 20.132880772884000 5.400600091748000
14.449637396000000 20.132880772884000 9.492004091747999
14.449637396000000 20.132880772884000 13.583408091747998
14.449637396000000 28.289732772884001 1.309196091748000
14.449637396000000 28.289732772884001 5.400600091748000
14.449637396000000 28.289732772884001 9.492004091747999
14.449637396000000 28.289732772884001 13.583408091747998
22.817749396000000 3.819176772884000 1.309196091748000
22.817749396000000 3.819176772884000 5.400600091748000
22.817749396000000 3.819176772884000 9.492004091747999
22.817749396000000 3.819176772884000 13.583408091747998
22.817749396000000 11.976028772884000 1.309196091748000
22.817749396000000 11.976028772884000 5.400600091748000
22.817749396000000 11.976028772884000 9.492004091747999
22.817749396000000 11.976028772884000 13.583408091747998
22.817749396000000 20.132880772884000 1.309196091748000
22.817749396000000 20.132880772884000 5.400600091748000
22.817749396000000 20.132880772884000 9.492004091747999
22.817749396000000 20.132880772884000 13.583408091747998
22.817749396000000 28.289732772884001 1.309196091748000
22.817749396000000 28.289732772884001 5.400600091748000
22.817749396000000 28.289732772884001 9.492004091747999
22.817749396000000 28.289732772884001 13.583408091747998
31.185861396000000 3.819176772884000 1.309196091748000
31.185861396000000 3.819176772884000 5.400600091748000
31.185861396000000 3.819176772884000 9.492004091747999
31.185861396000000 3.819176772884000 13.583408091747998
31.185861396000000 11.976028772884000 1.309196091748000
31.185861396000000 11.976028772884000 5.400600091748000
31.185861396000000 11.976028772884000 9.492004091747999
31.185861396000000 11.976028772884000 13.583408091747998
31.185861396000000 20.132880772884000 1.309196091748000
31.185861396000000 20.132880772884000 5.400600091748000
31.185861396000000 20.132880772884000 9.492004091747999
31.185861396000000 20.132880772884000 13.583408091747998
31.185861396000000 28.289732772884001 1.309196091748000
31.185861396000000 28.289732772884001 5.400600091748000
31.185861396000000 28.289732772884001 9.492004091747999
31.185861396000000 28.289732772884001 13.583408091747998
3.443888125488000 4.783675580772001 1.487818607580000
3.443888125488000 4.783675580772001 5.579222607580000
3.443888125488000 4.783675580772001 9.670626607579999
3.443888125488000 4.783675580772001 13.762030607579998
3.443888125488000 12.940527580772002 1.487818607580000
3.443888125488000 12.940527580772002 5.579222607580000
3.443888125488000 12.940527580772002 9.670626607579999
3.443888125488000 12.940527580772002 13.762030607579998
3.443888125488000 21.097379580772003 1.487818607580000
3.443888125488000 21.097379580772003 5.579222607580000
3.443888125488000 21.097379580772003 9.670626607579999
3.443888125488000 21.097379580772003 13.762030607579998
3.443888125488000 29.254231580772004 1.487818607580000
3.443888125488000 29.254231580772004 5.579222607580000
3.443888125488000 29.254231580772004 9.670626607579999
3.443888125488000 29.254231580772004 13.762030607579998
11.812000125488000 4.783675580772001 1.487818607580000
11.812000125488000 4.783675580772001 5.579222607580000
11.812000125488000 4.783675580772001 9.670626607579999
11.812000125488000 4.783675580772001 13.762030607579998
11.812000125488000 12.940527580772002 1.487818607580000
11.812000125488000 12.940527580772002 5.579222607580000
11.812000125488000 12.940527580772002 9.670626607579999
11.812000125488000 12.940527580772002 13.762030607579998
11.812000125488000 21.097379580772003 1.487818607580000
11.812000125488000 21.097379580772003 5.579222607580000
11.812000125488000 21.097379580772003 9.670626607579999
11.812000125488000 21.097379580772003 13.762030607579998
11.812000125488000 29.254231580772004 1.487818607580000
11.812000125488000 29.254231580772004 5.579222607580000
11.812000125488000 29.254231580772004 9.670626607579999
11.812000125488000 29.254231580772004 13.762030607579998
20.180112125488002 4.783675580772001 1.487818607580000
20.180112125488002 4.783675580772001 5.579222607580000
20.180112125488002 4.783675580772001 9.670626607579999
20.180112125488002 4.783675580772001 13.762030607579998
20.180112125488002 12.940527580772002 1.487818607580000
20.180112125488002 12.940527580772002 5.579222607580000
20.180112125488002 12.940527580772002 9.670626607579999
20.180112125488002 12.940527580772002 13.762030607579998
20.180112125488002 21.097379580772003 1.487818607580000
20.180112125488002 21.097379580772003 5.579222607580000
20.180112125488002 21.097379580772003 9.670626607579999
20.180112125488002 21.097379580772003 13.762030607579998
20.180112125488002 29.254231580772004 1.487818607580000
20.180112125488002 29.254231580772004 5.579222607580000
20.180112125488002 29.254231580772004 9.670626607579999
20.180112125488002 29.254231580772004 13.762030607579998
28.548224125487998 4.783675580772001 1.487818607580000
28.548224125487998 4.783675580772001 5.579222607580000
28.548224125487998 4.783675580772001 9.670626607579999
28.548224125487998 4.783675580772001 13.762030607579998
28.548224125487998 12.940527580772002 1.487818607580000
28.548224125487998 12.940527580772002 5.579222607580000
28.548224125487998 12.940527580772002 9.670626607579999
28.548224125487998 12.940527580772002 13.762030607579998
28.548224125487998 21.097379580772003 1.487818607580000
28.548224125487998 21.097379580772003 5.579222607580000
28.548224125487998 21.097379580772003 9.670626607579999
28.548224125487998 21.097379580772003 13.762030607579998
28.548224125487998 29.254231580772004 1.487818607580000
28.548224125487998 29.254231580772004 5.579222607580000
28.548224125487998 29.254231580772004 9.670626607579999
28.548224125487998 29.254231580772004 13.762030607579998
7.065531686080000 2.666882761400001 1.635874244128000
7.065531686080000 2.666882761400001 5.727278244128000
7.065531686080000 2.666882761400001 9.818682244128000
7.065531686080000 2.666882761400001 13.910086244127999
7.065531686080000 10.823734761400001 1.635874244128000
7.065531686080000 10.823734761400001 5.727278244128000
7.065531686080000 10.823734761400001 9.818682244128000
7.065531686080000 10.823734761400001 13.910086244127999
7.065531686080000 18.980586761400001 1.635874244128000
7.065531686080000 18.980586761400001 5.727278244128000
7.065531686080000 18.980586761400001 9.818682244128000
7.065531686080000 18.980586761400001 13.910086244127999
7.065531686080000 27.137438761400002 1.635874244128000
7.065531686080000 27.137438761400002 5.727278244128000
7.065531686080000 27.137438761400002 9.818682244128000
7.065531686080000 27.137438761400002 13.910086244127999
15.433643686080000 2.666882761400001 1.635874244128000
15.433643686080000 2.666882761400001 5.727278244128000
15.433643686080000 2.666882761400001 9.818682244128000
15.433643686080000 2.666882761400001 13.910086244127999
15.433643686080000 10.823734761400001 1.635874244128000
15.433643686080000 10.823734761400001 5.727278244128000
15.433643686080000 10.823734761400001 9.818682244128000
15.433643686080000 10.823734761400001 13.910086244127999
15.433643686080000 18.980586761400001 1.635874244128000
15.433643686080000 18.980586761400001 5.727278244128000
15.433643686080000 18.980586761400001 9.818682244128000
15.433643686080000 18.980586761400001 13.910086244127999
15.433643686080000 27.137438761400002 1.635874244128000
15.433643686080000 27.137438761400002 5.727278244128000
15.433643686080000 27.137438761400002 9.818682244128000
15.433643686080000 27.137438761400002 13.910086244127999
23.801755686080000 2.666882761400001 1.635874244128000
23.801755686080000 2.666882761400001 5.727278244128000
23.801755686080000 2.666882761400001 9.818682244128000
23.801755686080000 2.666882761400001 13.910086244127999
23.801755686080000 10.823734761400001 1.635874244128000
23.801755686080000 10.823734761400001 5.727278244128000
23.801755686080000 10.823734761400001 9.818682244128000
23.801755686080000 10.823734761400001 13.910086244127999
23.801755686080000 18.980586761400001 1.635874244128000
23.801755686080000 18.980586761400001 5.727278244128000
23.801755686080000 18.980586761400001 9.818682244128000
23.801755686080000 18.980586761400001 13.910086244127999
23.801755686080000 27.137438761400002 1.635874244128000
23.801755686080000 27.137438761400002 5.727278244128000
23.801755686080000 27.137438761400002 9.818682244128000
23.801755686080000 27.137438761400002 13.910086244127999
32.169867686079996 2.666882761400001 1.635874244128000
32.169867686079996 2.666882761400001 5.727278244128000
32.169867686079996 2.666882761400001 9.818682244128000
32.169867686079996 2.666882761400001 13.910086244127999
32.169867686079996 10.823734761400001 1.635874244128000
32.169867686079996 10.823734761400001 5.727278244128000
32.169867686079996 10.823734761400001 9.818682244128000
32.169867686079996 10.823734761400001 13.910086244127999
32.169867686079996 18.980586761400001 1.635874244128000
32.169867686079996 18.980586761400001 5.727278244128000
32.169867686079996 18.980586761400001 9.818682244128000
32.169867686079996 18.980586761400001 13.910086244127999
32.169867686079996 27.137438761400002 1.635874244128000
32.169867686079996 27.137438761400002 5.727278244128000
32.169867686079996 27.137438761400002 9.818682244128000
32.169867686079996 27.137438761400002 13.910086244127999
3.416281724000000 6.487796943760000 3.116148302732000
3.416281724000000 6.487796943760000 7.207552302731999
3.416281724000000 6.487796943760000 11.298956302732000
3.416281724000000 6.487796943760000 15.390360302731999
3.416281724000000 14.644648943760000 3.116148302732000
3.416281724000000 14.644648943760000 7.207552302731999
3.416281724000000 14.644648943760000 11.298956302732000
3.416281724000000 14.644648943760000 15.390360302731999
3.416281724000000 22.801500943760001 3.116148302732000
3.416281724000000 22.801500943760001 7.207552302731999
3.416281724000000 22.801500943760001 11.298956302732000
3.416281724000000 22.801500943760001 15.390360302731999
3.416281724000000 30.958352943760001 3.116148302732000
3.416281724000000 30.958352943760001 7.207552302731999
3.416281724000000 30.958352943760001 11.298956302732000
3.416281724000000 30.958352943760001 15.390360302731999
11.784393724000001 6.487796943760000 3.116148302732000
11.784393724000001 6.487796943760000 7.207552302731999
11.784393724000001 6.487796943760000 11.298956302732000
11.784393724000001 6.487796943760000 15.390360302731999
11.784393724000001 14.644648943760000 3.116148302732000
11.784393724000001 14.644648943760000 7.207552302731999
11.784393724000001 14.644648943760000 11.298956302732000
11.784393724000001 14.644648943760000 15.390360302731999
11.784393724000001 22.801500943760001 3.116148302732000
11.784393724000001 22.801500943760001 7.207552302731999
11.784393724000001 22.801500943760001 11.298956302732000
11.784393724000001 22.801500943760001 15.390360302731999
11.784393724000001 30.958352943760001 3.116148302732000
11.784393724000001 30.958352943760001 7.207552302731999
11.784393724000001 30.958352943760001 11.298956302732000
11.784393724000001 30.958352943760001 15.390360302731999
20.152505724000001 6.487796943760000 3.116148302732000
20.152505724000001 6.487796943760000 7.207552302731999
20.152505724000001 6.487796943760000 11.298956302732000
20.152505724000001 6.487796943760000 15.390360302731999
20.152505724000001 14.644648943760000 3.116148302732000
20.152505724000001 14.644648943760000 7.207552302731999
20.152505724000001 14.644648943760000 11.298956302732000
20.152505724000001 14.644648943760000 15.390360302731999
20.152505724000001 22.801500943760001 3.116148302732000
20.152505724000001 22.801500943760001 7.207552302731999
20.152505724000001 22.801500943760001 11.298956302732000
20.152505724000001 22.801500943760001 15.390360302731999
20.152505724000001 30.958352943760001 3.116148302732000
20.152505724000001 30.958352943760001 7.207552302731999
20.152505724000001 30.958352943760001 11.298956302732000
20.152505724000001 30.958352943760001 15.390360302731999
28.520617724000001 6.487796943760000 3.116148302732000
28.520617724000001 6.487796943760000 7.207552302731999
28.520617724000001 6.487796943760000 11.298956302732000
28.520617724000001 6.487796943760000 15.390360302731999
28.520617724000001 14.644648943760000 3.116148302732000
28.520617724000001 14.644648943760000 7.207552302731999
28.520617724000001 14.644648943760000 11.298956302732000
28.520617724000001 14.644648943760000 15.390360302731999
28.520617724000001 22.801500943760001 3.116148302732000
28.520617724000001 22.801500943760001 7.207552302731999
28.520617724000001 22.801500943760001 11.298956302732000
28.520617724000001 22.801500943760001 15.390360302731999
28.520617724000001 30.958352943760001 3.116148302732000
28.520617724000001 30.958352943760001 7.207552302731999
28.520617724000001 30.958352943760001 11.298956302732000
28.520617724000001 30.958352943760001 15.390360302731999
0.740167874512000 3.373176419228000 3.533520607580000
0.740167874512000 3.373176419228000 7.624924607580000
0.740167874512000 3.373176419228000 11.716328607579999
0.740167874512000 3.373176419228000 15.807732607579998
0.740167874512000 11.530028419228000 3.533520607580000
0.740167874512000 11.530028419228000 7.624924607580000
0.740167874512000 11.530028419228000 11.716328607579999
0.740167874512000 11.530028419228000 15.807732607579998
0.740167874512000 19.686880419228000 3.533520607580000
0.740167874512000 19.686880419228000 7.624924607580000
0.740167874512000 19.686880419228000 11.716328607579999
0.740167874512000 19.686880419228000 15.807732607579998
0.740167874512000 27.843732419228001 3.533520607580000
0.740167874512000 27.843732419228001 7.624924607580000
0.740167874512000 27.843732419228001 11.716328607579999
0.740167874512000 27.843732419228001 15.807732607579998
9.108279874512000 3.373176419228000 3.533520607580000
9.108279874512000 3.373176419228000 7.624924607580000
9.108279874512000 3.373176419228000 11.716328607579999
9.108279874512000 3.373176419228000 15.807732607579998
9.108279874512000 11.530028419228000 3.533520607580000
9.108279874512000 11.530028419228000 7.624924607580000
9.108279874512000 11.530028419228000 11.716328607579999
9.108279874512000 11.530028419228000 15.807732607579998
9.108279874512000 19.686880419228000 3.533520607580000
9.108279874512000 19.686880419228000 7.624924607580000
9.108279874512000 19.686880419228000 11.716328607579999
9.108279874512000 19.686880419228000 15.807732607579998
9.108279874512000 27.843732419228001 3.533520607580000
9.108279874512000 27.843732419228001 7.624924607580000
9.108279874512000 27.843732419228001 11.716328607579999
9.108279874512000 27.843732419228001 15.807732607579998
17.476391874512000 3.373176419228000 3.533520607580000
17.476391874512000 3.373176419228000 7.624924607580000
17.476391874512000 3.373176419228000 11.716328607579999
17.476391874512000 3.373176419228000 15.807732607579998
17.476391874512000 11.530028419228000 3.533520607580000
17.476391874512000 11.530028419228000 7.624924607580000
17.476391874512000 11.530028419228000 11.716328607579999
17.476391874512000 11.530028419228000 15.807732607579998
17.476391874512000 19.686880419228000 3.533520607580000
17.476391874512000 19.686880419228000 7.624924607580000
17.476391874512000 19.686880419228000 11.716328607579999
17.476391874512000 19.686880419228000 15.807732607579998
17.476391874512000 27.843732419228001 3.533520607580000
17.476391874512000 27.843732419228001 7.624924607580000
17.476391874512000 27.843732419228001 11.716328607579999
17.476391874512000 27.843732419228001 15.807732607579998
25.844503874512000 3.373176419228000 3.533520607580000
25.844503874512000 3.373176419228000 7.624924607580000
25.844503874512000 3.373176419228000 11.716328607579999
25.844503874512000 3.373176419228000 15.807732607579998
25.844503874512000 11.530028419228000 3.533520607580000
25.844503874512000 11.530028419228000 7.624924607580000
25.844503874512000 11.530028419228000 11.716328607579999
25.844503874512000 11.530028419228000 15.807732607579998
25.844503874512000 19.686880419228000 3.533520607580000
25.844503874512000 19.686880419228000 7.624924607580000
25.844503874512000 19.686880419228000 11.716328607579999
25.844503874512000 19.686880419228000 15.807732607579998
25.844503874512000 27.843732419228001 3.533520607580000
25.844503874512000 27.843732419228001 7.624924607580000
25.844503874512000 27.843732419228001 11.716328607579999
25.844503874512000 27.843732419228001 15.807732607579998
-0.273796256528000 1.331777382892000 -0.070760832180000
-0.273796256528000 1.331777382892000 4.020643167819999
-0.273796256528000 1.331777382892000 8.112047167820000
-0.273796256528000 1.331777382892000 12.203451167819999
-0.273796256528000 9.488629382892000 -0.070760832180000
-0.273796256528000 9.488629382892000 4.020643167819999
-0.273796256528000 9.488629382892000 8.112047167820000
-0.273796256528000 9.488629382892000 12.203451167819999
-0.273796256528000 17.645481382892001 -0.070760832180000
-0.273796256528000 17.645481382892001 4.020643167819999
-0.273796256528000 17.645481382892001 8.112047167820000
-0.273796256528000 17.645481382892001 12.203451167819999
-0.273796256528000 25.802333382892002 -0.070760832180000
-0.273796256528000 25.802333382892002 4.020643167819999
-0.273796256528000 25.802333382892002 8.112047167820000
-0.273796256528000 25.802333382892002 12.203451167819999
8.094315743472000 1.331777382892000 -0.070760832180000
8.094315743472000 1.331777382892000 4.020643167819999
8.094315743472000 1.331777382892000 8.112047167820000
8.094315743472000 1.331777382892000 12.203451167819999
8.094315743472000 9.488629382892000 -0.070760832180000