DMC-ICE13 ice XI; Cartesian 1x1x1 supercell
1.0
4.412173326207000 0.000000000000000 0.000000000000000
0.000000000000000 7.663488094975000 0.000124303247000
0.000000000000000 0.000117021283000 7.199592113007000
H O
16 8
Cartesian
0.000000000000000 4.143819585155801 0.143256839167901
0.000000000000000 5.091008737909317 1.439410046069054
0.000000000000000 3.519747177079960 3.743027963746334
0.000000000000000 2.572532211461262 5.039116197894220
2.206082624694201 1.259266420629354 1.439369040014030
2.206082624694201 0.312102005642591 0.143229293101182
2.206082624694201 6.404225698282535 5.039269416201437
2.206082624694201 7.351446144936878 3.743164311381458
1.405062488307225 5.886544803098435 7.082481702953350
3.007105789888151 5.886544803098435 7.082481702953350
1.405086602471369 1.777113160663646 3.482607316525991
3.007082685321919 1.777113160663646 3.482607316525991
0.801008542369112 2.054814580043319 7.082395381868206
3.611159735821851 2.054814580043319 7.082395381868206
0.801005669263323 5.608885328000487 3.482650008230518
3.611162608932054 5.608885328000487 3.482650008230518
0.000000000000000 5.101543673558890 0.437632566096773
0.000000000000000 2.562009026098923 4.037343522904401
2.206082624694201 1.269815825782048 0.437583213551726
2.206082624694201 6.393703982141244 4.037495332923237
2.206082624694201 6.382957472304721 6.742066526645335
2.206082624694201 1.280783040497612 3.142020203252210
4.412169287797701 2.551181848089013 6.741895467273333
4.412169287797701 5.112525368760817 3.142126364543278
