DMC-ICE13 ice Ih; Cartesian 4x4x4 supercell
1.0
30.712371999999998 0.000000000000000 0.000000000000000
15.356184000000001 26.597691999999999 0.000000000000000
0.000000000000000 0.000000000000000 28.938268000000001
H O
1536 768
Cartesian
1.285051545679000 2.225681567714000 1.445459252033000
1.285051545679000 2.225681567714000 8.680026252033000
1.285051545679000 2.225681567714000 15.914593252033001
1.285051545679000 2.225681567714000 23.149160252033003
5.124097545679000 8.875104567714001 1.445459252033000
5.124097545679000 8.875104567714001 8.680026252033000
5.124097545679000 8.875104567714001 15.914593252033001
5.124097545679000 8.875104567714001 23.149160252033003
8.963143545678999 15.524527567713999 1.445459252033000
8.963143545678999 15.524527567713999 8.680026252033000
8.963143545678999 15.524527567713999 15.914593252033001
8.963143545678999 15.524527567713999 23.149160252033003
12.802189545679001 22.173950567714002 1.445459252033000
12.802189545679001 22.173950567714002 8.680026252033000
12.802189545679001 22.173950567714002 15.914593252033001
12.802189545679001 22.173950567714002 23.149160252033003
8.963144545679000 2.225681567714000 1.445459252033000
8.963144545679000 2.225681567714000 8.680026252033000
8.963144545679000 2.225681567714000 15.914593252033001
8.963144545679000 2.225681567714000 23.149160252033003
12.802190545679000 8.875104567714001 1.445459252033000
12.802190545679000 8.875104567714001 8.680026252033000
12.802190545679000 8.875104567714001 15.914593252033001
12.802190545679000 8.875104567714001 23.149160252033003
16.641236545679000 15.524527567713999 1.445459252033000
16.641236545679000 15.524527567713999 8.680026252033000
16.641236545679000 15.524527567713999 15.914593252033001
16.641236545679000 15.524527567713999 23.149160252033003
20.480282545679000 22.173950567714002 1.445459252033000
20.480282545679000 22.173950567714002 8.680026252033000
20.480282545679000 22.173950567714002 15.914593252033001
20.480282545679000 22.173950567714002 23.149160252033003
16.641237545678997 2.225681567714000 1.445459252033000
16.641237545678997 2.225681567714000 8.680026252033000
16.641237545678997 2.225681567714000 15.914593252033001
16.641237545678997 2.225681567714000 23.149160252033003
20.480283545679001 8.875104567714001 1.445459252033000
20.480283545679001 8.875104567714001 8.680026252033000
20.480283545679001 8.875104567714001 15.914593252033001
20.480283545679001 8.875104567714001 23.149160252033003
24.319329545679000 15.524527567713999 1.445459252033000
24.319329545679000 15.524527567713999 8.680026252033000
24.319329545679000 15.524527567713999 15.914593252033001
24.319329545679000 15.524527567713999 23.149160252033003
28.158375545679000 22.173950567714002 1.445459252033000
28.158375545679000 22.173950567714002 8.680026252033000
28.158375545679000 22.173950567714002 15.914593252033001
28.158375545679000 22.173950567714002 23.149160252033003
24.319330545678998 2.225681567714000 1.445459252033000
24.319330545678998 2.225681567714000 8.680026252033000
24.319330545678998 2.225681567714000 15.914593252033001
24.319330545678998 2.225681567714000 23.149160252033003
28.158376545678998 8.875104567714001 1.445459252033000
28.158376545678998 8.875104567714001 8.680026252033000
28.158376545678998 8.875104567714001 15.914593252033001
28.158376545678998 8.875104567714001 23.149160252033003
31.997422545678997 15.524527567713999 1.445459252033000
31.997422545678997 15.524527567713999 8.680026252033000
31.997422545678997 15.524527567713999 15.914593252033001
31.997422545678997 15.524527567713999 23.149160252033003
35.836468545678997 22.173950567714002 1.445459252033000
35.836468545678997 22.173950567714002 8.680026252033000
35.836468545678997 22.173950567714002 15.914593252033001
35.836468545678997 22.173950567714002 23.149160252033003
5.107905114896000 0.000066494230000 1.445321795260000
5.107905114896000 0.000066494230000 8.679888795260000
5.107905114896000 0.000066494230000 15.914455795260000
5.107905114896000 0.000066494230000 23.149022795260002
8.946951114896001 6.649489494230000 1.445321795260000
8.946951114896001 6.649489494230000 8.679888795260000
8.946951114896001 6.649489494230000 15.914455795260000
8.946951114896001 6.649489494230000 23.149022795260002
12.785997114896000 13.298912494229999 1.445321795260000
12.785997114896000 13.298912494229999 8.679888795260000
12.785997114896000 13.298912494229999 15.914455795260000
12.785997114896000 13.298912494229999 23.149022795260002
16.625043114896002 19.948335494230001 1.445321795260000
16.625043114896002 19.948335494230001 8.679888795260000
16.625043114896002 19.948335494230001 15.914455795260000
16.625043114896002 19.948335494230001 23.149022795260002
12.785998114896000 0.000066494230000 1.445321795260000
12.785998114896000 0.000066494230000 8.679888795260000
12.785998114896000 0.000066494230000 15.914455795260000
12.785998114896000 0.000066494230000 23.149022795260002
16.625044114895999 6.649489494230000 1.445321795260000
16.625044114895999 6.649489494230000 8.679888795260000
16.625044114895999 6.649489494230000 15.914455795260000
16.625044114895999 6.649489494230000 23.149022795260002
20.464090114895999 13.298912494229999 1.445321795260000
20.464090114895999 13.298912494229999 8.679888795260000
20.464090114895999 13.298912494229999 15.914455795260000
20.464090114895999 13.298912494229999 23.149022795260002
24.303136114895999 19.948335494230001 1.445321795260000
24.303136114895999 19.948335494230001 8.679888795260000
24.303136114895999 19.948335494230001 15.914455795260000
24.303136114895999 19.948335494230001 23.149022795260002
20.464091114896000 0.000066494230000 1.445321795260000
20.464091114896000 0.000066494230000 8.679888795260000
20.464091114896000 0.000066494230000 15.914455795260000
20.464091114896000 0.000066494230000 23.149022795260002
24.303137114896000 6.649489494230000 1.445321795260000
24.303137114896000 6.649489494230000 8.679888795260000
24.303137114896000 6.649489494230000 15.914455795260000
24.303137114896000 6.649489494230000 23.149022795260002
28.142183114896000 13.298912494229999 1.445321795260000
28.142183114896000 13.298912494229999 8.679888795260000
28.142183114896000 13.298912494229999 15.914455795260000
28.142183114896000 13.298912494229999 23.149022795260002
31.981229114895999 19.948335494230001 1.445321795260000
31.981229114895999 19.948335494230001 8.679888795260000
31.981229114895999 19.948335494230001 15.914455795260000
31.981229114895999 19.948335494230001 23.149022795260002
28.142184114895997 0.000066494230000 1.445321795260000
28.142184114895997 0.000066494230000 8.679888795260000
28.142184114895997 0.000066494230000 15.914455795260000
28.142184114895997 0.000066494230000 23.149022795260002
31.981230114895997 6.649489494230000 1.445321795260000
31.981230114895997 6.649489494230000 8.679888795260000
31.981230114895997 6.649489494230000 15.914455795260000
31.981230114895997 6.649489494230000 23.149022795260002
35.820276114895996 13.298912494229999 1.445321795260000
35.820276114895996 13.298912494229999 8.679888795260000
35.820276114895996 13.298912494229999 15.914455795260000
35.820276114895996 13.298912494229999 23.149022795260002
39.659322114896000 19.948335494230001 1.445321795260000
39.659322114896000 19.948335494230001 8.679888795260000
39.659322114896000 19.948335494230001 15.914455795260000
39.659322114896000 19.948335494230001 23.149022795260002
5.123932801408000 4.423601794403000 1.445401375497000
5.123932801408000 4.423601794403000 8.679968375497001
5.123932801408000 4.423601794403000 15.914535375497000
5.123932801408000 4.423601794403000 23.149102375497002
8.962978801408001 11.073024794403000 1.445401375497000
8.962978801408001 11.073024794403000 8.679968375497001
8.962978801408001 11.073024794403000 15.914535375497000
8.962978801408001 11.073024794403000 23.149102375497002
12.802024801408001 17.722447794402999 1.445401375497000
12.802024801408001 17.722447794402999 8.679968375497001
12.802024801408001 17.722447794402999 15.914535375497000
12.802024801408001 17.722447794402999 23.149102375497002
16.641070801408002 24.371870794403002 1.445401375497000
16.641070801408002 24.371870794403002 8.679968375497001
16.641070801408002 24.371870794403002 15.914535375497000
16.641070801408002 24.371870794403002 23.149102375497002
12.802025801408000 4.423601794403000 1.445401375497000
12.802025801408000 4.423601794403000 8.679968375497001
12.802025801408000 4.423601794403000 15.914535375497000
12.802025801408000 4.423601794403000 23.149102375497002
16.641071801408000 11.073024794403000 1.445401375497000
16.641071801408000 11.073024794403000 8.679968375497001
16.641071801408000 11.073024794403000 15.914535375497000
16.641071801408000 11.073024794403000 23.149102375497002
20.480117801407999 17.722447794402999 1.445401375497000
20.480117801407999 17.722447794402999 8.679968375497001
20.480117801407999 17.722447794402999 15.914535375497000
20.480117801407999 17.722447794402999 23.149102375497002
24.319163801407999 24.371870794403002 1.445401375497000
24.319163801407999 24.371870794403002 8.679968375497001
24.319163801407999 24.371870794403002 15.914535375497000
24.319163801407999 24.371870794403002 23.149102375497002
20.480118801408000 4.423601794403000 1.445401375497000
20.480118801408000 4.423601794403000 8.679968375497001
20.480118801408000 4.423601794403000 15.914535375497000
20.480118801408000 4.423601794403000 23.149102375497002
24.319164801408000 11.073024794403000 1.445401375497000
24.319164801408000 11.073024794403000 8.679968375497001
24.319164801408000 11.073024794403000 15.914535375497000
24.319164801408000 11.073024794403000 23.149102375497002
28.158210801408000 17.722447794402999 1.445401375497000
28.158210801408000 17.722447794402999 8.679968375497001
28.158210801408000 17.722447794402999 15.914535375497000
28.158210801408000 17.722447794402999 23.149102375497002
31.997256801408000 24.371870794403002 1.445401375497000
31.997256801408000 24.371870794403002 8.679968375497001
31.997256801408000 24.371870794403002 15.914535375497000
31.997256801408000 24.371870794403002 23.149102375497002
28.158211801407997 4.423601794403000 1.445401375497000
28.158211801407997 4.423601794403000 8.679968375497001
28.158211801407997 4.423601794403000 15.914535375497000
28.158211801407997 4.423601794403000 23.149102375497002
31.997257801407997 11.073024794403000 1.445401375497000
31.997257801407997 11.073024794403000 8.679968375497001
31.997257801407997 11.073024794403000 15.914535375497000
31.997257801407997 11.073024794403000 23.149102375497002
35.836303801408000 17.722447794402999 1.445401375497000
35.836303801408000 17.722447794402999 8.679968375497001
35.836303801408000 17.722447794402999 15.914535375497000
35.836303801408000 17.722447794402999 23.149102375497002
39.675349801408004 24.371870794403002 1.445401375497000
39.675349801408004 24.371870794403002 8.679968375497001
39.675349801408004 24.371870794403002 15.914535375497000
39.675349801408004 24.371870794403002 23.149102375497002
6.409272275576000 6.649263413848000 5.062648702662000
6.409272275576000 6.649263413848000 12.297215702662001
6.409272275576000 6.649263413848000 19.531782702661999
6.409272275576000 6.649263413848000 26.766349702662001
10.248318275576001 13.298686413847999 5.062648702662000
10.248318275576001 13.298686413847999 12.297215702662001
10.248318275576001 13.298686413847999 19.531782702661999
10.248318275576001 13.298686413847999 26.766349702662001
14.087364275576000 19.948109413847998 5.062648702662000
14.087364275576000 19.948109413847998 12.297215702662001
14.087364275576000 19.948109413847998 19.531782702661999
14.087364275576000 19.948109413847998 26.766349702662001
17.926410275576000 26.597532413848000 5.062648702662000
17.926410275576000 26.597532413848000 12.297215702662001
17.926410275576000 26.597532413848000 19.531782702661999
17.926410275576000 26.597532413848000 26.766349702662001
14.087365275575999 6.649263413848000 5.062648702662000
14.087365275575999 6.649263413848000 12.297215702662001
14.087365275575999 6.649263413848000 19.531782702661999
14.087365275575999 6.649263413848000 26.766349702662001
17.926411275576001 13.298686413847999 5.062648702662000
17.926411275576001 13.298686413847999 12.297215702662001
17.926411275576001 13.298686413847999 19.531782702661999
17.926411275576001 13.298686413847999 26.766349702662001
21.765457275576001 19.948109413847998 5.062648702662000
21.765457275576001 19.948109413847998 12.297215702662001
21.765457275576001 19.948109413847998 19.531782702661999
21.765457275576001 19.948109413847998 26.766349702662001
25.604503275576000 26.597532413848000 5.062648702662000
25.604503275576000 26.597532413848000 12.297215702662001
25.604503275576000 26.597532413848000 19.531782702661999
25.604503275576000 26.597532413848000 26.766349702662001
21.765458275575998 6.649263413848000 5.062648702662000
21.765458275575998 6.649263413848000 12.297215702662001
21.765458275575998 6.649263413848000 19.531782702661999
21.765458275575998 6.649263413848000 26.766349702662001
25.604504275576002 13.298686413847999 5.062648702662000
25.604504275576002 13.298686413847999 12.297215702662001
25.604504275576002 13.298686413847999 19.531782702661999
25.604504275576002 13.298686413847999 26.766349702662001
29.443550275576001 19.948109413847998 5.062648702662000
29.443550275576001 19.948109413847998 12.297215702662001
29.443550275576001 19.948109413847998 19.531782702661999
29.443550275576001 19.948109413847998 26.766349702662001
33.282596275575997 26.597532413848000 5.062648702662000
33.282596275575997 26.597532413848000 12.297215702662001
33.282596275575997 26.597532413848000 19.531782702661999
33.282596275575997 26.597532413848000 26.766349702662001
29.443551275575999 6.649263413848000 5.062648702662000
29.443551275575999 6.649263413848000 12.297215702662001
29.443551275575999 6.649263413848000 19.531782702661999
29.443551275575999 6.649263413848000 26.766349702662001
33.282597275575995 13.298686413847999 5.062648702662000
33.282597275575995 13.298686413847999 12.297215702662001
33.282597275575995 13.298686413847999 19.531782702661999
33.282597275575995 13.298686413847999 26.766349702662001
37.121643275575998 19.948109413847998 5.062648702662000
37.121643275575998 19.948109413847998 12.297215702662001
37.121643275575998 19.948109413847998 19.531782702661999
37.121643275575998 19.948109413847998 26.766349702662001
40.960689275576001 26.597532413848000 5.062648702662000
40.960689275576001 26.597532413848000 12.297215702662001
40.960689275576001 26.597532413848000 19.531782702661999
40.960689275576001 26.597532413848000 26.766349702662001
10.231822560133999 4.423455507097000 5.062749986600000
10.231822560133999 4.423455507097000 12.297316986600000
10.231822560133999 4.423455507097000 19.531883986600000
10.231822560133999 4.423455507097000 26.766450986600002
14.070868560133999 11.072878507096998 5.062749986600000
14.070868560133999 11.072878507096998 12.297316986600000
14.070868560133999 11.072878507096998 19.531883986600000
14.070868560133999 11.072878507096998 26.766450986600002
17.909914560133998 17.722301507097001 5.062749986600000
17.909914560133998 17.722301507097001 12.297316986600000
17.909914560133998 17.722301507097001 19.531883986600000
17.909914560133998 17.722301507097001 26.766450986600002
21.748960560134002 24.371724507096999 5.062749986600000
21.748960560134002 24.371724507096999 12.297316986600000
21.748960560134002 24.371724507096999 19.531883986600000
21.748960560134002 24.371724507096999 26.766450986600002
17.909915560133999 4.423455507097000 5.062749986600000
17.909915560133999 4.423455507097000 12.297316986600000
17.909915560133999 4.423455507097000 19.531883986600000
17.909915560133999 4.423455507097000 26.766450986600002
21.748961560133999 11.072878507096998 5.062749986600000
21.748961560133999 11.072878507096998 12.297316986600000
21.748961560133999 11.072878507096998 19.531883986600000
21.748961560133999 11.072878507096998 26.766450986600002
25.588007560133999 17.722301507097001 5.062749986600000
25.588007560133999 17.722301507097001 12.297316986600000
25.588007560133999 17.722301507097001 19.531883986600000
25.588007560133999 17.722301507097001 26.766450986600002
29.427053560133999 24.371724507096999 5.062749986600000
29.427053560133999 24.371724507096999 12.297316986600000
29.427053560133999 24.371724507096999 19.531883986600000
29.427053560133999 24.371724507096999 26.766450986600002
25.588008560134000 4.423455507097000 5.062749986600000
25.588008560134000 4.423455507097000 12.297316986600000
25.588008560134000 4.423455507097000 19.531883986600000
25.588008560134000 4.423455507097000 26.766450986600002
29.427054560134000 11.072878507096998 5.062749986600000
29.427054560134000 11.072878507096998 12.297316986600000
29.427054560134000 11.072878507096998 19.531883986600000
29.427054560134000 11.072878507096998 26.766450986600002
33.266100560133999 17.722301507097001 5.062749986600000
33.266100560133999 17.722301507097001 12.297316986600000
33.266100560133999 17.722301507097001 19.531883986600000
33.266100560133999 17.722301507097001 26.766450986600002
37.105146560134003 24.371724507096999 5.062749986600000
37.105146560134003 24.371724507096999 12.297316986600000
37.105146560134003 24.371724507096999 19.531883986600000
37.105146560134003 24.371724507096999 26.766450986600002
33.266101560133997 4.423455507097000 5.062749986600000
33.266101560133997 4.423455507097000 12.297316986600000
33.266101560133997 4.423455507097000 19.531883986600000
33.266101560133997 4.423455507097000 26.766450986600002
37.105147560134000 11.072878507096998 5.062749986600000
37.105147560134000 11.072878507096998 12.297316986600000
37.105147560134000 11.072878507096998 19.531883986600000
37.105147560134000 11.072878507096998 26.766450986600002
40.944193560133996 17.722301507097001 5.062749986600000
40.944193560133996 17.722301507097001 12.297316986600000
40.944193560133996 17.722301507097001 19.531883986600000
40.944193560133996 17.722301507097001 26.766450986600002
44.783239560134000 24.371724507096999 5.062749986600000
44.783239560134000 24.371724507096999 12.297316986600000
44.783239560134000 24.371724507096999 19.531883986600000
44.783239560134000 24.371724507096999 26.766450986600002
6.392914431050000 2.225927596365000 5.062742752033000
6.392914431050000 2.225927596365000 12.297309752033001
6.392914431050000 2.225927596365000 19.531876752033000
6.392914431050000 2.225927596365000 26.766443752033002
10.231960431050000 8.875350596364999 5.062742752033000
10.231960431050000 8.875350596364999 12.297309752033001
10.231960431050000 8.875350596364999 19.531876752033000
10.231960431050000 8.875350596364999 26.766443752033002
14.071006431050002 15.524773596365000 5.062742752033000
14.071006431050002 15.524773596365000 12.297309752033001
14.071006431050002 15.524773596365000 19.531876752033000
14.071006431050002 15.524773596365000 26.766443752033002
17.910052431050001 22.174196596365000 5.062742752033000
17.910052431050001 22.174196596365000 12.297309752033001
17.910052431050001 22.174196596365000 19.531876752033000
17.910052431050001 22.174196596365000 26.766443752033002
14.071007431049999 2.225927596365000 5.062742752033000
14.071007431049999 2.225927596365000 12.297309752033001
14.071007431049999 2.225927596365000 19.531876752033000
14.071007431049999 2.225927596365000 26.766443752033002
17.910053431050002 8.875350596364999 5.062742752033000
17.910053431050002 8.875350596364999 12.297309752033001
17.910053431050002 8.875350596364999 19.531876752033000
17.910053431050002 8.875350596364999 26.766443752033002
21.749099431049999 15.524773596365000 5.062742752033000
21.749099431049999 15.524773596365000 12.297309752033001
21.749099431049999 15.524773596365000 19.531876752033000
21.749099431049999 15.524773596365000 26.766443752033002
25.588145431050002 22.174196596365000 5.062742752033000
25.588145431050002 22.174196596365000 12.297309752033001
25.588145431050002 22.174196596365000 19.531876752033000
25.588145431050002 22.174196596365000 26.766443752033002
21.749100431050000 2.225927596365000 5.062742752033000
21.749100431050000 2.225927596365000 12.297309752033001
21.749100431050000 2.225927596365000 19.531876752033000
21.749100431050000 2.225927596365000 26.766443752033002
25.588146431049999 8.875350596364999 5.062742752033000
25.588146431049999 8.875350596364999 12.297309752033001
25.588146431049999 8.875350596364999 19.531876752033000
25.588146431049999 8.875350596364999 26.766443752033002
29.427192431050003 15.524773596365000 5.062742752033000
29.427192431050003 15.524773596365000 12.297309752033001
29.427192431050003 15.524773596365000 19.531876752033000
29.427192431050003 15.524773596365000 26.766443752033002
33.266238431049999 22.174196596365000 5.062742752033000
33.266238431049999 22.174196596365000 12.297309752033001
33.266238431049999 22.174196596365000 19.531876752033000
33.266238431049999 22.174196596365000 26.766443752033002
29.427193431050000 2.225927596365000 5.062742752033000
29.427193431050000 2.225927596365000 12.297309752033001
29.427193431050000 2.225927596365000 19.531876752033000
29.427193431050000 2.225927596365000 26.766443752033002
33.266239431049996 8.875350596364999 5.062742752033000
33.266239431049996 8.875350596364999 12.297309752033001
33.266239431049996 8.875350596364999 19.531876752033000
33.266239431049996 8.875350596364999 26.766443752033002
37.105285431050000 15.524773596365000 5.062742752033000
37.105285431050000 15.524773596365000 12.297309752033001
37.105285431050000 15.524773596365000 19.531876752033000
37.105285431050000 15.524773596365000 26.766443752033002
40.944331431050003 22.174196596365000 5.062742752033000
40.944331431050003 22.174196596365000 12.297309752033001
40.944331431050003 22.174196596365000 19.531876752033000
40.944331431050003 22.174196596365000 26.766443752033002
4.180445227149000 0.000039896538000 0.141681760128000
4.180445227149000 0.000039896538000 7.376248760128000
4.180445227149000 0.000039896538000 14.610815760128000
4.180445227149000 0.000039896538000 21.845382760128004
8.019491227149000 6.649462896538000 0.141681760128000
8.019491227149000 6.649462896538000 7.376248760128000
8.019491227149000 6.649462896538000 14.610815760128000
8.019491227149000 6.649462896538000 21.845382760128004
11.858537227149000 13.298885896538000 0.141681760128000
11.858537227149000 13.298885896538000 7.376248760128000
11.858537227149000 13.298885896538000 14.610815760128000
11.858537227149000 13.298885896538000 21.845382760128004
15.697583227149000 19.948308896537998 0.141681760128000
15.697583227149000 19.948308896537998 7.376248760128000
15.697583227149000 19.948308896537998 14.610815760128000
15.697583227149000 19.948308896537998 21.845382760128004
11.858538227148999 0.000039896538000 0.141681760128000
11.858538227148999 0.000039896538000 7.376248760128000
11.858538227148999 0.000039896538000 14.610815760128000
11.858538227148999 0.000039896538000 21.845382760128004
15.697584227149001 6.649462896538000 0.141681760128000
15.697584227149001 6.649462896538000 7.376248760128000
15.697584227149001 6.649462896538000 14.610815760128000
15.697584227149001 6.649462896538000 21.845382760128004
19.536630227149001 13.298885896538000 0.141681760128000
19.536630227149001 13.298885896538000 7.376248760128000
19.536630227149001 13.298885896538000 14.610815760128000
19.536630227149001 13.298885896538000 21.845382760128004
23.375676227149000 19.948308896537998 0.141681760128000
23.375676227149000 19.948308896537998 7.376248760128000
23.375676227149000 19.948308896537998 14.610815760128000
23.375676227149000 19.948308896537998 21.845382760128004
19.536631227148998 0.000039896538000 0.141681760128000
19.536631227148998 0.000039896538000 7.376248760128000
19.536631227148998 0.000039896538000 14.610815760128000
19.536631227148998 0.000039896538000 21.845382760128004
23.375677227149001 6.649462896538000 0.141681760128000
23.375677227149001 6.649462896538000 7.376248760128000
23.375677227149001 6.649462896538000 14.610815760128000
23.375677227149001 6.649462896538000 21.845382760128004
27.214723227149001 13.298885896538000 0.141681760128000
27.214723227149001 13.298885896538000 7.376248760128000
27.214723227149001 13.298885896538000 14.610815760128000
27.214723227149001 13.298885896538000 21.845382760128004
31.053769227149001 19.948308896537998 0.141681760128000
31.053769227149001 19.948308896537998 7.376248760128000
31.053769227149001 19.948308896537998 14.610815760128000
31.053769227149001 19.948308896537998 21.845382760128004
27.214724227148999 0.000039896538000 0.141681760128000
27.214724227148999 0.000039896538000 7.376248760128000
27.214724227148999 0.000039896538000 14.610815760128000
27.214724227148999 0.000039896538000 21.845382760128004
31.053770227148998 6.649462896538000 0.141681760128000
31.053770227148998 6.649462896538000 7.376248760128000
31.053770227148998 6.649462896538000 14.610815760128000
31.053770227148998 6.649462896538000 21.845382760128004
34.892816227148998 13.298885896538000 0.141681760128000
34.892816227148998 13.298885896538000 7.376248760128000
34.892816227148998 13.298885896538000 14.610815760128000
34.892816227148998 13.298885896538000 21.845382760128004
38.731862227149001 19.948308896537998 0.141681760128000
38.731862227149001 19.948308896537998 7.376248760128000
38.731862227149001 19.948308896537998 14.610815760128000
38.731862227149001 19.948308896537998 21.845382760128004
1.748677774897000 3.028945164960000 0.141833686035000
1.748677774897000 3.028945164960000 7.376400686035000
1.748677774897000 3.028945164960000 14.610967686035000
1.748677774897000 3.028945164960000 21.845534686035002
5.587723774897000 9.678368164960000 0.141833686035000
5.587723774897000 9.678368164960000 7.376400686035000
5.587723774897000 9.678368164960000 14.610967686035000
5.587723774897000 9.678368164960000 21.845534686035002
9.426769774897000 16.327791164960001 0.141833686035000
9.426769774897000 16.327791164960001 7.376400686035000
9.426769774897000 16.327791164960001 14.610967686035000
9.426769774897000 16.327791164960001 21.845534686035002
13.265815774897002 22.977214164959999 0.141833686035000
13.265815774897002 22.977214164959999 7.376400686035000
13.265815774897002 22.977214164959999 14.610967686035000
13.265815774897002 22.977214164959999 21.845534686035002
9.426770774896999 3.028945164960000 0.141833686035000
9.426770774896999 3.028945164960000 7.376400686035000
9.426770774896999 3.028945164960000 14.610967686035000
9.426770774896999 3.028945164960000 21.845534686035002
13.265816774897001 9.678368164960000 0.141833686035000
13.265816774897001 9.678368164960000 7.376400686035000
13.265816774897001 9.678368164960000 14.610967686035000
13.265816774897001 9.678368164960000 21.845534686035002
17.104862774897001 16.327791164960001 0.141833686035000
17.104862774897001 16.327791164960001 7.376400686035000
17.104862774897001 16.327791164960001 14.610967686035000
17.104862774897001 16.327791164960001 21.845534686035002
20.943908774897000 22.977214164959999 0.141833686035000
20.943908774897000 22.977214164959999 7.376400686035000
20.943908774897000 22.977214164959999 14.610967686035000
20.943908774897000 22.977214164959999 21.845534686035002
17.104863774896998 3.028945164960000 0.141833686035000
17.104863774896998 3.028945164960000 7.376400686035000
17.104863774896998 3.028945164960000 14.610967686035000
17.104863774896998 3.028945164960000 21.845534686035002
20.943909774897001 9.678368164960000 0.141833686035000
20.943909774897001 9.678368164960000 7.376400686035000
20.943909774897001 9.678368164960000 14.610967686035000
20.943909774897001 9.678368164960000 21.845534686035002
24.782955774897001 16.327791164960001 0.141833686035000
24.782955774897001 16.327791164960001 7.376400686035000
24.782955774897001 16.327791164960001 14.610967686035000
24.782955774897001 16.327791164960001 21.845534686035002
28.622001774897001 22.977214164959999 0.141833686035000
28.622001774897001 22.977214164959999 7.376400686035000
28.622001774897001 22.977214164959999 14.610967686035000
28.622001774897001 22.977214164959999 21.845534686035002
24.782956774896999 3.028945164960000 0.141833686035000
24.782956774896999 3.028945164960000 7.376400686035000
24.782956774896999 3.028945164960000 14.610967686035000
24.782956774896999 3.028945164960000 21.845534686035002
28.622002774896998 9.678368164960000 0.141833686035000
28.622002774896998 9.678368164960000 7.376400686035000
28.622002774896998 9.678368164960000 14.610967686035000
28.622002774896998 9.678368164960000 21.845534686035002
32.461048774896994 16.327791164960001 0.141833686035000
32.461048774896994 16.327791164960001 7.376400686035000
32.461048774896994 16.327791164960001 14.610967686035000
32.461048774896994 16.327791164960001 21.845534686035002
36.300094774896998 22.977214164959999 0.141833686035000
36.300094774896998 22.977214164959999 7.376400686035000
36.300094774896998 22.977214164959999 14.610967686035000
36.300094774896998 22.977214164959999 21.845534686035002
5.587693518045000 3.620477835040000 0.141754105798000
5.587693518045000 3.620477835040000 7.376321105798000
5.587693518045000 3.620477835040000 14.610888105798001
5.587693518045000 3.620477835040000 21.845455105798003
9.426739518045000 10.269900835040000 0.141754105798000
9.426739518045000 10.269900835040000 7.376321105798000
9.426739518045000 10.269900835040000 14.610888105798001
9.426739518045000 10.269900835040000 21.845455105798003
13.265785518045000 16.919323835040000 0.141754105798000
13.265785518045000 16.919323835040000 7.376321105798000
13.265785518045000 16.919323835040000 14.610888105798001
13.265785518045000 16.919323835040000 21.845455105798003
17.104831518045000 23.568746835039999 0.141754105798000
17.104831518045000 23.568746835039999 7.376321105798000
17.104831518045000 23.568746835039999 14.610888105798001
17.104831518045000 23.568746835039999 21.845455105798003
13.265786518044999 3.620477835040000 0.141754105798000
13.265786518044999 3.620477835040000 7.376321105798000
13.265786518044999 3.620477835040000 14.610888105798001