&GLOBAL
  PRINT_LEVEL LOW
  PROJECT anthracene_GFN1_gamma_energy
  RUN_TYPE ENERGY
&END GLOBAL

&FORCE_EVAL
  METHOD Quickstep
  STRESS_TENSOR ANALYTICAL
  &DFT
    &QS
      EPS_DEFAULT 1.0E-12
      METHOD xTB
      &XTB
        GFN_TYPE TBLITE
        &TBLITE
          METHOD GFN1
          ACCURACY 0.1
        &END TBLITE
      &END XTB
    &END QS
    &SCF
      EPS_SCF 1.0E-9
      MAX_SCF 300
      SCF_GUESS MOPAC
      &MIXING
        METHOD DIRECT_P_MIXING
        ALPHA 0.2
      &END MIXING
    &END SCF
  &END DFT
  &SUBSYS
    &CELL
      PERIODIC XYZ
      A 8.414400000000 0.000000000000 0.000000000000
      B 0.000000000000 5.990300000000 0.000000000000
      C -6.410397339427 0.000000000000 9.056074648581
    &END CELL
    &COORD
      SCALED
      C   0.086100000000  0.026600000000  0.368100000000
      C   0.913900000000  0.973400000000  0.631900000000
      C   0.586100000000  0.473400000000  0.368100000000
      C   0.413900000000  0.526600000000  0.631900000000
      C   0.117200000000  0.155500000000  0.283000000000
      C   0.882800000000  0.844500000000  0.717000000000
      C   0.617200000000  0.344500000000  0.283000000000
      C   0.382800000000  0.655500000000  0.717000000000
      C   0.058500000000  0.081400000000  0.139800000000
      C   0.941500000000  0.918600000000  0.860200000000
      C   0.558500000000  0.418600000000  0.139800000000
      C   0.441500000000  0.581400000000  0.860200000000
      C   0.087000000000  0.211100000000  0.049100000000
      C   0.913000000000  0.788900000000  0.950900000000
      C   0.587000000000  0.288900000000  0.049100000000
      C   0.413000000000  0.711100000000  0.950900000000
      C   0.969300000000  0.865700000000  0.089600000000
      C   0.030700000000  0.134300000000  0.910400000000
      C   0.469300000000  0.634300000000  0.089600000000
      C   0.530700000000  0.365700000000  0.910400000000
      C   0.939800000000  0.735700000000  0.183400000000
      C   0.060200000000  0.264300000000  0.816600000000
      C   0.439800000000  0.764300000000  0.183400000000
      C   0.560200000000  0.235700000000  0.816600000000
      C   0.995100000000  0.813700000000  0.317400000000
      C   0.004900000000  0.186300000000  0.682600000000
      C   0.495100000000  0.686300000000  0.317400000000
      C   0.504900000000  0.313700000000  0.682600000000
      H   0.123000000000  0.076000000000  0.466000000000
      H   0.877000000000  0.924000000000  0.534000000000
      H   0.623000000000  0.424000000000  0.466000000000
      H   0.377000000000  0.576000000000  0.534000000000
      H   0.184000000000  0.302000000000  0.319000000000
      H   0.816000000000  0.698000000000  0.681000000000
      H   0.684000000000  0.198000000000  0.319000000000
      H   0.316000000000  0.802000000000  0.681000000000
      H   0.151000000000  0.354000000000  0.085000000000
      H   0.849000000000  0.646000000000  0.915000000000
      H   0.651000000000  0.146000000000  0.085000000000
      H   0.349000000000  0.854000000000  0.915000000000
      H   0.876000000000  0.590000000000  0.145000000000
      H   0.124000000000  0.410000000000  0.855000000000
      H   0.376000000000  0.910000000000  0.145000000000
      H   0.624000000000  0.090000000000  0.855000000000
      H   0.967000000000  0.724000000000  0.380000000000
      H   0.033000000000  0.276000000000  0.620000000000
      H   0.467000000000  0.776000000000  0.380000000000
      H   0.533000000000  0.224000000000  0.620000000000
    &END COORD
  &END SUBSYS
&END FORCE_EVAL
