&GLOBAL
  PRINT_LEVEL LOW
  PROJECT ethylcarbamate_GFN2_gamma_energy
  RUN_TYPE ENERGY
&END GLOBAL

&FORCE_EVAL
  METHOD Quickstep
  STRESS_TENSOR ANALYTICAL
  &DFT
    &QS
      EPS_DEFAULT 1.0E-12
      METHOD xTB
      &XTB
        GFN_TYPE TBLITE
        &TBLITE
          METHOD GFN2
          ACCURACY 0.1
        &END TBLITE
      &END XTB
    &END QS
    &SCF
      EPS_SCF 1.0E-9
      MAX_SCF 300
      SCF_GUESS MOPAC
      &MIXING
        METHOD DIRECT_P_MIXING
        ALPHA 0.2
      &END MIXING
    &END SCF
  &END DFT
  &SUBSYS
    &CELL
      PERIODIC XYZ
      A 5.051000000000 0.000000000000 0.000000000000
      B 1.618832245817 6.821546977036 0.000000000000
      C -1.898811071606 -1.077747285315 7.220098773794
    &END CELL
    &COORD
      SCALED
      C   0.869610000000  0.792700000000  0.364520000000
      C   0.130390000000  0.207300000000  0.635480000000
      C   0.781130000000  0.596780000000  0.275210000000
      C   0.218870000000  0.403220000000  0.724790000000
      C   0.007270000000  0.280070000000  0.152880000000
      C   0.992730000000  0.719930000000  0.847120000000
      H   0.700000000000  0.860000000000  0.383000000000
      H   0.300000000000  0.140000000000  0.617000000000
      H   0.042000000000  0.767000000000  0.500000000000
      H   0.958000000000  0.233000000000  0.500000000000
      H   0.896000000000  0.883000000000  0.283000000000
      H   0.104000000000  0.117000000000  0.717000000000
      H   0.704000000000  0.543000000000  0.358000000000
      H   0.296000000000  0.457000000000  0.642000000000
      H   0.637000000000  0.593000000000  0.142000000000
      H   0.363000000000  0.407000000000  0.858000000000
      H   0.425000000000  0.200000000000  0.167000000000
      H   0.575000000000  0.800000000000  0.833000000000
      H   0.250000000000  0.033000000000  0.067000000000
      H   0.750000000000  0.967000000000  0.933000000000
      N   0.251080000000  0.166330000000  0.128280000000
      N   0.748920000000  0.833670000000  0.871720000000
      O   0.037290000000  0.462550000000  0.237850000000
      O   0.962710000000  0.537450000000  0.762150000000
      O   0.784580000000  0.226140000000  0.105960000000
      O   0.215420000000  0.773860000000  0.894040000000
    &END COORD
  &END SUBSYS
&END FORCE_EVAL
