DMC-ICE13 ice II; Cartesian 3x3x3 supercell
1.0
21.370017539999999 0.000000000000000 -9.123462450000000
-13.815197460000000 16.303925520000000 -9.123462450000000
0.000000000000000 0.000000000000000 23.236076820000001
H O
648 324
Cartesian
6.417944000000000 10.248042999999999 8.693522000000000
6.417944000000000 10.248042999999999 16.438880940000001
6.417944000000000 10.248042999999999 24.184239880000000
1.812878180000000 15.682684840000000 5.652367849999999
1.812878180000000 15.682684840000000 13.397726790000000
1.812878180000000 15.682684840000000 21.143085729999999
-2.792187640000000 21.117326679999998 2.611213700000000
-2.792187640000000 21.117326679999998 10.356572640000000
-2.792187640000000 21.117326679999998 18.101931579999999
13.541283180000001 10.248042999999999 5.652367849999999
13.541283180000001 10.248042999999999 13.397726790000000
13.541283180000001 10.248042999999999 21.143085729999999
8.936217360000001 15.682684840000000 2.611213700000000
8.936217360000001 15.682684840000000 10.356572640000000
8.936217360000001 15.682684840000000 18.101931579999999
4.331151540000000 21.117326679999998 -0.429940450000000
4.331151540000000 21.117326679999998 7.315418489999999
4.331151540000000 21.117326679999998 15.060777430000000
20.664622360000003 10.248042999999999 2.611213700000000
20.664622360000003 10.248042999999999 10.356572640000000
20.664622360000003 10.248042999999999 18.101931579999999
16.059556540000003 15.682684840000000 -0.429940450000000
16.059556540000003 15.682684840000000 7.315418489999999
16.059556540000003 15.682684840000000 15.060777430000000
11.454490720000001 21.117326679999998 -3.471094600000001
11.454490720000001 21.117326679999998 4.274264339999999
11.454490720000001 21.117326679999998 12.019623279999999
6.623366000000000 11.303845000000001 9.806830000000000
6.623366000000000 11.303845000000001 17.552188940000001
6.623366000000000 11.303845000000001 25.297547880000000
2.018300180000000 16.738486840000000 6.765675849999999
2.018300180000000 16.738486840000000 14.511034790000000
2.018300180000000 16.738486840000000 22.256393729999999
-2.586765640000000 22.173128680000001 3.724521699999999
-2.586765640000000 22.173128680000001 11.469880640000000
-2.586765640000000 22.173128680000001 19.215239580000002
13.746705179999999 11.303845000000001 6.765675849999999
13.746705179999999 11.303845000000001 14.511034790000000
13.746705179999999 11.303845000000001 22.256393729999999
9.141639359999999 16.738486840000000 3.724521699999999
9.141639359999999 16.738486840000000 11.469880640000000
9.141639359999999 16.738486840000000 19.215239580000002
4.536573540000000 22.173128680000001 0.683367550000000
4.536573540000000 22.173128680000001 8.428726489999999
4.536573540000000 22.173128680000001 16.174085429999998
20.870044360000001 11.303845000000001 3.724521699999999
20.870044360000001 11.303845000000001 11.469880640000000
20.870044360000001 11.303845000000001 19.215239580000002
16.264978540000001 16.738486840000000 0.683367550000000
16.264978540000001 16.738486840000000 8.428726489999999
16.264978540000001 16.738486840000000 16.174085429999998
11.659912720000001 22.173128680000001 -2.357786600000001
11.659912720000001 22.173128680000001 5.387572339999999
11.659912720000001 22.173128680000001 13.132931279999999
12.768371000000000 7.403543000000000 12.051133000000000
12.768371000000000 7.403543000000000 19.796491939999999
12.768371000000000 7.403543000000000 27.541850879999998
8.163305180000000 12.838184840000000 9.009978850000000
8.163305180000000 12.838184840000000 16.755337789999999
8.163305180000000 12.838184840000000 24.500696730000001
3.558239360000000 18.272826680000001 5.968824700000000
3.558239360000000 18.272826680000001 13.714183640000000
3.558239360000000 18.272826680000001 21.459542580000001
19.891710180000000 7.403543000000000 9.009978850000000
19.891710180000000 7.403543000000000 16.755337789999999
19.891710180000000 7.403543000000000 24.500696730000001
15.286644360000000 12.838184840000000 5.968824700000000
15.286644360000000 12.838184840000000 13.714183640000000
15.286644360000000 12.838184840000000 21.459542580000001
10.681578540000000 18.272826680000001 2.927670550000000
10.681578540000000 18.272826680000001 10.673029489999999
10.681578540000000 18.272826680000001 18.418388430000000
27.015049359999999 7.403543000000000 5.968824700000000
27.015049359999999 7.403543000000000 13.714183640000000
27.015049359999999 7.403543000000000 21.459542580000001
22.409983539999999 12.838184840000000 2.927670550000000
22.409983539999999 12.838184840000000 10.673029489999999
22.409983539999999 12.838184840000000 18.418388430000000
17.804917719999999 18.272826680000001 -0.113483600000000
17.804917719999999 18.272826680000001 7.631875340000000
17.804917719999999 18.272826680000001 15.377234280000000
13.091172000000000 7.319880000000000 13.594135000000000
13.091172000000000 7.319880000000000 21.339493940000001
13.091172000000000 7.319880000000000 29.084852880000000
8.486106180000000 12.754521840000001 10.552980849999999
8.486106180000000 12.754521840000001 18.298339790000000
8.486106180000000 12.754521840000001 26.043698729999999
3.881040360000000 18.189163680000000 7.511826699999999
3.881040360000000 18.189163680000000 15.257185639999999
3.881040360000000 18.189163680000000 23.002544579999999
20.214511180000002 7.319880000000000 10.552980849999999
20.214511180000002 7.319880000000000 18.298339790000000
20.214511180000002 7.319880000000000 26.043698729999999
15.609445360000000 12.754521840000001 7.511826699999999
15.609445360000000 12.754521840000001 15.257185639999999
15.609445360000000 12.754521840000001 23.002544579999999
11.004379540000000 18.189163680000000 4.470672550000000
11.004379540000000 18.189163680000000 12.216031489999999
11.004379540000000 18.189163680000000 19.961390430000002
27.337850360000001 7.319880000000000 7.511826699999999
27.337850360000001 7.319880000000000 15.257185639999999
27.337850360000001 7.319880000000000 23.002544579999999
22.732784540000001 12.754521840000001 4.470672550000000
22.732784540000001 12.754521840000001 12.216031489999999
22.732784540000001 12.754521840000001 19.961390430000002
18.127718720000001 18.189163680000000 1.429518399999999
18.127718720000001 18.189163680000000 9.174877339999998
18.127718720000001 18.189163680000000 16.920236279999997
10.646870000000000 6.138815000000000 15.718164000000000
10.646870000000000 6.138815000000000 23.463522940000001
10.646870000000000 6.138815000000000 31.208881880000000
6.041804180000000 11.573456840000000 12.677009849999999
6.041804180000000 11.573456840000000 20.422368790000000
6.041804180000000 11.573456840000000 28.167727729999999
1.436738360000000 17.008098680000000 9.635855700000000
1.436738360000000 17.008098680000000 17.381214640000000
1.436738360000000 17.008098680000000 25.126573579999999
17.770209180000002 6.138815000000000 12.677009849999999
17.770209180000002 6.138815000000000 20.422368790000000
17.770209180000002 6.138815000000000 28.167727729999999
13.165143360000000 11.573456840000000 9.635855700000000
13.165143360000000 11.573456840000000 17.381214640000000
13.165143360000000 11.573456840000000 25.126573579999999
8.560077540000000 17.008098680000000 6.594701550000000
8.560077540000000 17.008098680000000 14.340060489999999
8.560077540000000 17.008098680000000 22.085419430000002
24.893548360000000 6.138815000000000 9.635855700000000
24.893548360000000 6.138815000000000 17.381214640000000
24.893548360000000 6.138815000000000 25.126573579999999
20.288482540000000 11.573456840000000 6.594701550000000
20.288482540000000 11.573456840000000 14.340060489999999
20.288482540000000 11.573456840000000 22.085419430000002
15.683416720000000 17.008098680000000 3.553547399999999
15.683416720000000 17.008098680000000 11.298906339999998
15.683416720000000 17.008098680000000 19.044265279999998
11.934880000000000 6.978175000000000 15.899630999999999
11.934880000000000 6.978175000000000 23.644989939999999
11.934880000000000 6.978175000000000 31.390348879999998
7.329814180000000 12.412816840000001 12.858476849999999
7.329814180000000 12.412816840000001 20.603835789999998
7.329814180000000 12.412816840000001 28.349194730000001
2.724748360000000 17.847458680000003 9.817322699999998
2.724748360000000 17.847458680000003 17.562681640000001
2.724748360000000 17.847458680000003 25.308040580000000
19.058219180000002 6.978175000000000 12.858476849999999
19.058219180000002 6.978175000000000 20.603835789999998
19.058219180000002 6.978175000000000 28.349194730000001
14.453153360000000 12.412816840000001 9.817322699999998
14.453153360000000 12.412816840000001 17.562681640000001
14.453153360000000 12.412816840000001 25.308040580000000
9.848087540000000 17.847458680000003 6.776168550000000
9.848087540000000 17.847458680000003 14.521527489999999
9.848087540000000 17.847458680000003 22.266886430000000
26.181558360000000 6.978175000000000 9.817322699999998
26.181558360000000 6.978175000000000 17.562681640000001
26.181558360000000 6.978175000000000 25.308040580000000
21.576492540000000 12.412816840000001 6.776168550000000
21.576492540000000 12.412816840000001 14.521527489999999
21.576492540000000 12.412816840000001 22.266886430000000
16.971426720000000 17.847458680000003 3.735014399999999
16.971426720000000 17.847458680000003 11.480373340000000
16.971426720000000 17.847458680000003 19.225732279999999
11.270740999999999 9.144830000000001 8.628221999999999
11.270740999999999 9.144830000000001 16.373580940000000
11.270740999999999 9.144830000000001 24.118939879999999
6.665675179999999 14.579471840000000 5.587067849999999
6.665675179999999 14.579471840000000 13.332426790000000
6.665675179999999 14.579471840000000 21.077785729999999
2.060609359999999 20.014113680000001 2.545913699999999
2.060609359999999 20.014113680000001 10.291272639999999
2.060609359999999 20.014113680000001 18.036631579999998
18.394080180000000 9.144830000000001 5.587067849999999
18.394080180000000 9.144830000000001 13.332426790000000
18.394080180000000 9.144830000000001 21.077785729999999
13.789014359999999 14.579471840000000 2.545913699999999
13.789014359999999 14.579471840000000 10.291272639999999
13.789014359999999 14.579471840000000 18.036631579999998
9.183948539999999 20.014113680000001 -0.495240450000001
9.183948539999999 20.014113680000001 7.250118489999998
9.183948539999999 20.014113680000001 14.995477429999999
25.517419359999998 9.144830000000001 2.545913699999999
25.517419359999998 9.144830000000001 10.291272639999999
25.517419359999998 9.144830000000001 18.036631579999998
20.912353539999998 14.579471840000000 -0.495240450000001
20.912353539999998 14.579471840000000 7.250118489999998
20.912353539999998 14.579471840000000 14.995477429999999
16.307287719999998 20.014113680000001 -3.536394600000001
16.307287719999998 20.014113680000001 4.208964339999999
16.307287719999998 20.014113680000001 11.954323279999999
12.582812000000001 9.337194000000000 7.771747000000000
12.582812000000001 9.337194000000000 15.517105940000000
12.582812000000001 9.337194000000000 23.262464880000000
7.977746180000000 14.771835840000001 4.730592850000001
7.977746180000000 14.771835840000001 12.475951790000000
7.977746180000000 14.771835840000001 20.221310729999999
3.372680360000000 20.206477679999999 1.689438700000000
3.372680360000000 20.206477679999999 9.434797639999999
3.372680360000000 20.206477679999999 17.180156580000002
19.706151179999999 9.337194000000000 4.730592850000001
19.706151179999999 9.337194000000000 12.475951790000000
19.706151179999999 9.337194000000000 20.221310729999999
15.101085360000001 14.771835840000001 1.689438700000000
15.101085360000001 14.771835840000001 9.434797639999999
15.101085360000001 14.771835840000001 17.180156580000002
10.496019540000001 20.206477679999999 -1.351715449999999
10.496019540000001 20.206477679999999 6.393643490000001
10.496019540000001 20.206477679999999 14.139002430000001
26.829490360000001 9.337194000000000 1.689438700000000
26.829490360000001 9.337194000000000 9.434797639999999
26.829490360000001 9.337194000000000 17.180156580000002
22.224424540000001 14.771835840000001 -1.351715449999999
22.224424540000001 14.771835840000001 6.393643490000001
22.224424540000001 14.771835840000001 14.139002430000001
17.619358720000001 20.206477679999999 -4.392869600000000
17.619358720000001 20.206477679999999 3.352489340000000
17.619358720000001 20.206477679999999 11.097848280000001
14.802765000000001 6.708601000000000 7.562427000000000
14.802765000000001 6.708601000000000 15.307785939999999
14.802765000000001 6.708601000000000 23.053144879999998
10.197699180000001 12.143242839999999 4.521272849999999
10.197699180000001 12.143242839999999 12.266631790000000
10.197699180000001 12.143242839999999 20.011990730000001
5.592633360000001 17.577884680000000 1.480118699999999
5.592633360000001 17.577884680000000 9.225477639999999
5.592633360000001 17.577884680000000 16.970836580000000
21.926104180000003 6.708601000000000 4.521272849999999
21.926104180000003 6.708601000000000 12.266631790000000
21.926104180000003 6.708601000000000 20.011990730000001
17.321038360000003 12.143242839999999 1.480118699999999
17.321038360000003 12.143242839999999 9.225477639999999
17.321038360000003 12.143242839999999 16.970836580000000
12.715972540000001 17.577884680000000 -1.561035450000000
12.715972540000001 17.577884680000000 6.184323489999999
12.715972540000001 17.577884680000000 13.929682430000000
29.049443360000001 6.708601000000000 1.480118699999999
29.049443360000001 6.708601000000000 9.225477639999999
29.049443360000001 6.708601000000000 16.970836580000000
24.444377540000001 12.143242839999999 -1.561035450000000
24.444377540000001 12.143242839999999 6.184323489999999
24.444377540000001 12.143242839999999 13.929682430000000
19.839311720000001 17.577884680000000 -4.602189600000001
19.839311720000001 17.577884680000000 3.143169339999999
19.839311720000001 17.577884680000000 10.888528279999999
14.894140000000000 8.233870000000000 7.314282000000000
14.894140000000000 8.233870000000000 15.059640940000001
14.894140000000000 8.233870000000000 22.804999880000000
10.289074180000000 13.668511840000001 4.273127850000000
10.289074180000000 13.668511840000001 12.018486790000001
10.289074180000000 13.668511840000001 19.763845730000000
5.684008360000000 19.103153679999998 1.231973700000000
5.684008360000000 19.103153679999998 8.977332640000000
5.684008360000000 19.103153679999998 16.722691580000003
22.017479180000002 8.233870000000000 4.273127850000000
22.017479180000002 8.233870000000000 12.018486790000001
22.017479180000002 8.233870000000000 19.763845730000000
17.412413360000002 13.668511840000001 1.231973700000000
17.412413360000002 13.668511840000001 8.977332640000000
17.412413360000002 13.668511840000001 16.722691580000003
12.807347540000000 19.103153679999998 -1.809180449999999
12.807347540000000 19.103153679999998 5.936178490000000
12.807347540000000 19.103153679999998 13.681537430000001
29.140818360000001 8.233870000000000 1.231973700000000
29.140818360000001 8.233870000000000 8.977332640000000
29.140818360000001 8.233870000000000 16.722691580000003
24.535752540000001 13.668511840000001 -1.809180449999999
24.535752540000001 13.668511840000001 5.936178490000000
24.535752540000001 13.668511840000001 13.681537430000001
19.930686720000001 19.103153679999998 -4.850334600000000
19.930686720000001 19.103153679999998 2.895024340000000
19.930686720000001 19.103153679999998 10.640383280000000
9.024283000000000 9.127933000000001 12.084565000000000
9.024283000000000 9.127933000000001 19.829923940000000
9.024283000000000 9.127933000000001 27.575282880000000
4.419217180000000 14.562574840000000 9.043410849999999
4.419217180000000 14.562574840000000 16.788769790000000
4.419217180000000 14.562574840000000 24.534128729999999
-0.185848640000000 19.997216680000001 6.002256699999999
-0.185848640000000 19.997216680000001 13.747615639999999
-0.185848640000000 19.997216680000001 21.492974580000002
16.147622179999999 9.127933000000001 9.043410849999999
16.147622179999999 9.127933000000001 16.788769790000000
16.147622179999999 9.127933000000001 24.534128729999999
11.542556360000001 14.562574840000000 6.002256699999999
11.542556360000001 14.562574840000000 13.747615639999999
11.542556360000001 14.562574840000000 21.492974580000002
6.937490540000001 19.997216680000001 2.961102550000000
6.937490540000001 19.997216680000001 10.706461489999999
6.937490540000001 19.997216680000001 18.451820429999998
23.270961360000001 9.127933000000001 6.002256699999999
23.270961360000001 9.127933000000001 13.747615639999999
23.270961360000001 9.127933000000001 21.492974580000002
18.665895540000001 14.562574840000000 2.961102550000000
18.665895540000001 14.562574840000000 10.706461489999999
18.665895540000001 14.562574840000000 18.451820429999998
14.060829720000001 19.997216680000001 -0.080051600000001
14.060829720000001 19.997216680000001 7.665307339999999
14.060829720000001 19.997216680000001 15.410666279999999
7.961228000000000 10.253330999999999 11.775600000000001
7.961228000000000 10.253330999999999 19.520958940000000
7.961228000000000 10.253330999999999 27.266317880000003
3.356162180000000 15.687972840000000 8.734445850000000
3.356162180000000 15.687972840000000 16.479804790000003
3.356162180000000 15.687972840000000 24.225163729999998
-1.248903640000000 21.122614679999998 5.693291700000001
-1.248903640000000 21.122614679999998 13.438650640000001
-1.248903640000000 21.122614679999998 21.184009580000001
15.084567180000001 10.253330999999999 8.734445850000000
15.084567180000001 10.253330999999999 16.479804790000003
15.084567180000001 10.253330999999999 24.225163729999998
10.479501360000000 15.687972840000000 5.693291700000001
10.479501360000000 15.687972840000000 13.438650640000001
10.479501360000000 15.687972840000000 21.184009580000001
5.874435540000000 21.122614679999998 2.652137550000001
5.874435540000000 21.122614679999998 10.397496490000000
5.874435540000000 21.122614679999998 18.142855430000001
22.207906360000003 10.253330999999999 5.693291700000001
22.207906360000003 10.253330999999999 13.438650640000001
22.207906360000003 10.253330999999999 21.184009580000001
17.602840540000003 15.687972840000000 2.652137550000001
17.602840540000003 15.687972840000000 10.397496490000000
17.602840540000003 15.687972840000000 18.142855430000001
12.997774720000001 21.122614679999998 -0.389016600000000
12.997774720000001 21.122614679999998 7.356342340000000
12.997774720000001 21.122614679999998 15.101701280000000
15.710703000000001 7.055802000000000 13.206108000000000
15.710703000000001 7.055802000000000 20.951466940000000
15.710703000000001 7.055802000000000 28.696825879999999
11.105637180000000 12.490443840000001 10.164953850000000
11.105637180000000 12.490443840000001 17.910312789999999
11.105637180000000 12.490443840000001 25.655671730000002
6.500571360000000 17.925085680000002 7.123799700000000
6.500571360000000 17.925085680000002 14.869158640000000
6.500571360000000 17.925085680000002 22.614517580000001
22.834042180000001 7.055802000000000 10.164953850000000
22.834042180000001 7.055802000000000 17.910312789999999
22.834042180000001 7.055802000000000 25.655671730000002
18.228976360000001 12.490443840000001 7.123799700000000
18.228976360000001 12.490443840000001 14.869158640000000
18.228976360000001 12.490443840000001 22.614517580000001
13.623910540000001 17.925085680000002 4.082645550000001
13.623910540000001 17.925085680000002 11.828004490000000
13.623910540000001 17.925085680000002 19.573363430000001
29.957381359999999 7.055802000000000 7.123799700000000
29.957381359999999 7.055802000000000 14.869158640000000
29.957381359999999 7.055802000000000 22.614517580000001
25.352315539999999 12.490443840000001 4.082645550000001
25.352315539999999 12.490443840000001 11.828004490000000
25.352315539999999 12.490443840000001 19.573363430000001
20.747249719999999 17.925085680000002 1.041491400000000
20.747249719999999 17.925085680000002 8.786850340000001
20.747249719999999 17.925085680000002 16.532209280000000
15.505281000000000 6.000000000000000 12.092800000000000
15.505281000000000 6.000000000000000 19.838158940000000
15.505281000000000 6.000000000000000 27.583517880000002
10.900215180000000 11.434641840000001 9.051645850000000
10.900215180000000 11.434641840000001 16.797004790000003
10.900215180000000 11.434641840000001 24.542363729999998
6.295149360000000 16.869283680000002 6.010491700000000
6.295149360000000 16.869283680000002 13.755850640000000
6.295149360000000 16.869283680000002 21.501209580000001
22.628620179999999 6.000000000000000 9.051645850000000
22.628620179999999 6.000000000000000 16.797004790000003
22.628620179999999 6.000000000000000 24.542363729999998
18.023554359999999 11.434641840000001 6.010491700000000
18.023554359999999 11.434641840000001 13.755850640000000
18.023554359999999 11.434641840000001 21.501209580000001
13.418488540000000 16.869283680000002 2.969337550000001
13.418488540000000 16.869283680000002 10.714696490000000
13.418488540000000 16.869283680000002 18.460055430000001
29.751959360000001 6.000000000000000 6.010491700000000
29.751959360000001 6.000000000000000 13.755850640000000
29.751959360000001 6.000000000000000 21.501209580000001
25.146893540000001 11.434641840000001 2.969337550000001
25.146893540000001 11.434641840000001 10.714696490000000
25.146893540000001 11.434641840000001 18.460055430000001
20.541827720000001 16.869283680000002 -0.071816600000000
20.541827720000001 16.869283680000002 7.673542340000000
20.541827720000001 16.869283680000002 15.418901280000000
9.360275000000000 9.900302999999999 9.848497000000000
9.360275000000000 9.900302999999999 17.593855940000001
9.360275000000000 9.900302999999999 25.339214880000000
4.755209180000000 15.334944839999999 6.807342850000000
4.755209180000000 15.334944839999999 14.552701790000000
4.755209180000000 15.334944839999999 22.298060730000000
0.150143360000000 20.769586680000000 3.766188700000000
0.150143360000000 20.769586680000000 11.511547640000000
0.150143360000000 20.769586680000000 19.256906579999999
16.483614180000000 9.900302999999999 6.807342850000000
16.483614180000000 9.900302999999999 14.552701790000000
16.483614180000000 9.900302999999999 22.298060730000000
11.878548360000000 15.334944839999999 3.766188700000000
11.878548360000000 15.334944839999999 11.511547640000000
11.878548360000000 15.334944839999999 19.256906579999999
7.273482540000000 20.769586680000000 0.725034550000000
7.273482540000000 20.769586680000000 8.470393489999999
7.273482540000000 20.769586680000000 16.215752430000002
23.606953359999999 9.900302999999999 3.766188700000000
23.606953359999999 9.900302999999999 11.511547640000000
23.606953359999999 9.900302999999999 19.256906579999999
19.001887539999998 15.334944839999999 0.725034550000000
19.001887539999998 15.334944839999999 8.470393489999999
19.001887539999998 15.334944839999999 16.215752430000002
14.396821720000000 20.769586680000000 -2.316119600000000
14.396821720000000 20.769586680000000 5.429239340000000
14.396821720000000 20.769586680000000 13.174598280000000
9.037475000000001 9.983966000000001 8.305495000000001
9.037475000000001 9.983966000000001 16.050853940000000
9.037475000000001 9.983966000000001 23.796212879999999
4.432409180000001 15.418607840000000 5.264340850000000
4.432409180000001 15.418607840000000 13.009699790000001
4.432409180000001 15.418607840000000 20.755058730000002
-0.172656640000000 20.853249680000001 2.223186700000000
-0.172656640000000 20.853249680000001 9.968545640000000
-0.172656640000000 20.853249680000001 17.713904580000001
16.160814180000003 9.983966000000001 5.264340850000000
16.160814180000003 9.983966000000001 13.009699790000001
16.160814180000003 9.983966000000001 20.755058730000002
11.555748360000001 15.418607840000000 2.223186700000000
11.555748360000001 15.418607840000000 9.968545640000000
11.555748360000001 15.418607840000000 17.713904580000001
6.950682540000001 20.853249680000001 -0.817967449999999
6.950682540000001 20.853249680000001 6.927391490000000
6.950682540000001 20.853249680000001 14.672750430000001
23.284153360000001 9.983966000000001 2.223186700000000
23.284153360000001 9.983966000000001 9.968545640000000
23.284153360000001 9.983966000000001 17.713904580000001
18.679087540000001 15.418607840000000 -0.817967449999999
18.679087540000001 15.418607840000000 6.927391490000000
18.679087540000001 15.418607840000000 14.672750430000001
14.074021720000001 20.853249680000001 -3.859121600000000
14.074021720000001 20.853249680000001 3.886237340000000
14.074021720000001 20.853249680000001 11.631596280000000
11.481776999999999 11.165030000000000 6.181465000000000
11.481776999999999 11.165030000000000 13.926823940000000
11.481776999999999 11.165030000000000 21.672182880000001
6.876711179999999 16.599671839999999 3.140310850000000
6.876711179999999 16.599671839999999 10.885669790000001
6.876711179999999 16.599671839999999 18.631028730000001
2.271645359999999 22.034313680000000 0.099156700000000
2.271645359999999 22.034313680000000 7.844515640000000
2.271645359999999 22.034313680000000 15.589874580000000
18.605116180000000 11.165030000000000 3.140310850000000
18.605116180000000 11.165030000000000 10.885669790000001
18.605116180000000 11.165030000000000 18.631028730000001
14.000050359999999 16.599671839999999 0.099156700000000
14.000050359999999 16.599671839999999 7.844515640000000
14.000050359999999 16.599671839999999 15.589874580000000
9.394984539999999 22.034313680000000 -2.941997450000000
9.394984539999999 22.034313680000000 4.803361490000000
9.394984539999999 22.034313680000000 12.548720429999999
25.728455359999998 11.165030000000000 0.099156700000000
25.728455359999998 11.165030000000000 7.844515640000000
25.728455359999998 11.165030000000000 15.589874580000000
21.123389539999998 16.599671839999999 -2.941997450000000
21.123389539999998 16.599671839999999 4.803361490000000
21.123389539999998 16.599671839999999 12.548720429999999
16.518323719999998 22.034313680000000 -5.983151600000000
16.518323719999998 22.034313680000000 1.762207340000000
16.518323719999998 22.034313680000000 9.507566279999999
10.193766000000000 10.325670000000001 6.000000000000000
10.193766000000000 10.325670000000001 13.745358939999999
10.193766000000000 10.325670000000001 21.490717879999998
5.588700180000000 15.760311840000000 2.958845850000000
5.588700180000000 15.760311840000000 10.704204790000000
5.588700180000000 15.760311840000000 18.449563730000001
0.983634360000000 21.194953680000001 -0.082308300000000
0.983634360000000 21.194953680000001 7.663050640000000
0.983634360000000 21.194953680000001 15.408409580000001
17.317105179999999 10.325670000000001 2.958845850000000
17.317105179999999 10.325670000000001 10.704204790000000
17.317105179999999 10.325670000000001 18.449563730000001
12.712039360000000 15.760311840000000 -0.082308300000000
12.712039360000000 15.760311840000000 7.663050640000000
12.712039360000000 15.760311840000000 15.408409580000001
8.106973540000000 21.194953680000001 -3.123462450000000
8.106973540000000 21.194953680000001 4.621896489999999
8.106973540000000 21.194953680000001 12.367255430000000
24.440444360000001 10.325670000000001 -0.082308300000000
24.440444360000001 10.325670000000001 7.663050640000000
24.440444360000001 10.325670000000001 15.408409580000001
19.835378540000001 15.760311840000000 -3.123462450000000
19.835378540000001 15.760311840000000 4.621896489999999
19.835378540000001 15.760311840000000 12.367255430000000
15.230312720000001 21.194953680000001 -6.164616600000000
15.230312720000001 21.194953680000001 1.580742340000000
15.230312720000001 21.194953680000001 9.326101280000000
10.857906000000000 8.159015999999999 13.271407999999999
10.857906000000000 8.159015999999999 21.016766940000000
10.857906000000000 8.159015999999999 28.762125879999999
6.252840180000000 13.593657839999999 10.230253849999999
6.252840180000000 13.593657839999999 17.975612790000000
6.252840180000000 13.593657839999999 25.720971729999999
1.647774360000000 19.028299680000000 7.189099699999999
1.647774360000000 19.028299680000000 14.934458639999999
1.647774360000000 19.028299680000000 22.679817579999998
17.981245180000002 8.159015999999999 10.230253849999999
17.981245180000002 8.159015999999999 17.975612790000000
17.981245180000002 8.159015999999999 25.720971729999999
13.376179360000000 13.593657839999999 7.189099699999999
13.376179360000000 13.593657839999999 14.934458639999999
13.376179360000000 13.593657839999999 22.679817579999998
8.771113540000000 19.028299680000000 4.147945549999999
8.771113540000000 19.028299680000000 11.893304489999998
8.771113540000000 19.028299680000000 19.638663430000001
25.104584360000000 8.159015999999999 7.189099699999999
25.104584360000000 8.159015999999999 14.934458639999999
25.104584360000000 8.159015999999999 22.679817579999998
20.499518540000000 13.593657839999999 4.147945549999999
20.499518540000000 13.593657839999999 11.893304489999998
20.499518540000000 13.593657839999999 19.638663430000001
15.894452720000000 19.028299680000000 1.106791399999999
15.894452720000000 19.028299680000000 8.852150339999998
15.894452720000000 19.028299680000000 16.597509279999997
9.545835000000000 7.966651000000000 14.127882000000000
9.545835000000000 7.966651000000000 21.873240939999999
9.545835000000000 7.966651000000000 29.618599879999998
4.940769180000000 13.401292840000000 11.086727849999999
4.940769180000000 13.401292840000000 18.832086789999998
4.940769180000000 13.401292840000000 26.577445730000001
0.335703360000000 18.835934680000001 8.045573699999998
0.335703360000000 18.835934680000001 15.790932639999999
0.335703360000000 18.835934680000001 23.536291580000000
16.669174179999999 7.966651000000000 11.086727849999999
16.669174179999999 7.966651000000000 18.832086789999998
16.669174179999999 7.966651000000000 26.577445730000001
12.064108360000001 13.401292840000000 8.045573699999998
12.064108360000001 13.401292840000000 15.790932639999999
12.064108360000001 13.401292840000000 23.536291580000000
7.459042540000000 18.835934680000001 5.004419550000000
7.459042540000000 18.835934680000001 12.749778489999999