DMC-ICE13 ice XVII; Cartesian 2x2x2 supercell
1.0
6.236622841832394 10.752349190520000 -0.040829816338000
-6.202799919624795 10.773204536568000 -0.058611368388000
-0.017451627953250 0.055293675010000 11.885618629412001
H O
96 48
Cartesian
2.450156087419044 5.647847862745304 1.136540975676218
2.441430273442419 5.675494700250304 7.079350290382219
-0.651243872393353 11.034450131029304 1.107235291482218
-0.659969686369978 11.062096968534306 7.050044606188218
5.568467508335242 11.024022458005305 1.116126067507218
5.559741694358616 11.051669295510305 7.058935382213218
2.467067548522843 16.410624726289306 1.086820383313218
2.458341734546219 16.438271563794306 7.029629698019218
-2.908216822893018 5.097306504470466 3.112551681508873
-2.916942636869643 5.124953341975466 9.055360996214873
-6.009616782705415 10.483908772754466 3.083245997314873
-6.018342596682040 10.511555610259467 9.026055312020873
0.210094598023179 10.473481099730467 3.092136773339873
0.201368784046554 10.501127937235466 9.034946088045874
-2.891305361789219 15.860083368014468 3.062831089145873
-2.900031175765843 15.887730205519468 9.005640403851874
0.252365734332859 0.753547956079230 5.118155151367717
0.243639920356234 0.781194793584230 11.060964466073717
-2.849034225479540 6.140150224363230 5.088849467173717
-2.857760039456165 6.167797061868231 11.031658781879717
3.370677155249056 6.129722551339230 5.097740243198717
3.361951341272431 6.157369388844231 11.040549557904718
0.269277195436657 11.516324819623232 5.068434559004717
0.260551381460032 11.543971657128232 11.011243873710718
2.040105359258813 4.154625516557047 1.532720868226767
2.031379545282188 4.182272354062047 7.475530182932768
-1.061294600553584 9.541227784841048 1.503415184032767
-1.070020414530210 9.568874622346048 7.446224498738768
5.158416780175009 9.530800111817047 1.512305960057768
5.149690966198385 9.558446949322047 7.455115274763767
2.057016820362613 14.917402380101048 1.483000275863767
2.048291006385988 14.945049217606048 7.425809590569767
-1.408304646422569 5.490504049025038 3.502873169000408
-1.417030460399194 5.518150886530038 9.445682483706408
-4.509704606234966 10.877106317309039 3.473567484806408
-4.518430420211592 10.904753154814038 9.416376799512408
1.710006774493628 10.866678644285038 3.482458260831407
1.701280960517003 10.894325481790037 9.425267575537408
-1.391393185318769 16.253280912569039 3.453152576637407
-1.400118999295394 16.280927750074039 9.395961891343408
-0.838262176975712 1.857654470505858 5.501496756265968
-0.846987990952337 1.885301308010858 11.444306070971969
-3.939662136788109 7.244256738789858 5.472191072071968
-3.948387950764735 7.271903576294858 11.415000386777969
2.280049243940485 7.233829065765858 5.481081848096968
2.271323429963860 7.261475903270858 11.423891162802969
-0.821350715871912 12.620431334049860 5.451776163902968
-0.830076529848537 12.648078171554859 11.394585478608969
0.717650724421495 5.824670091825422 2.538224208004126
0.708924910444870 5.852316929330422 8.481033522710128
-2.383749235390902 11.211272360109422 2.508918523810126
-2.392475049367528 11.238919197614422 8.451727838516128
3.835962145337692 11.200844687085421 2.517809299835126
3.827236331361067 11.228491524590423 8.460618614541126
0.734562185525295 16.587446955369423 2.488503615641126
0.725836371548670 16.615093792874422 8.431312930347126
0.924321392157742 8.896542456136281 4.505184581867880
0.915595578181117 8.924189293641280 10.447993896573880
-2.177078567654655 14.283144724420282 4.475878897673880
-2.185804381631281 14.310791561925281 10.418688212379880
4.042632813073939 14.272717051396281 4.484769673698880
4.033906999097313 14.300363888901281 10.427578988404880
0.941232853261542 19.659319319680282 4.455463989504880
0.932507039284917 19.686966157185282 10.398273304210880
-1.827808328736267 7.529512060820658 0.546014179415357
-1.836534142712892 7.557158898325659 6.488823494121357
-4.929208288548665 12.916114329104659 0.516708495221357
-4.937934102525290 12.943761166609658 6.459517809927357
1.290503092179930 12.905686656080658 0.525599271246357
1.281777278203305 12.933333493585659 6.468408585952357
-1.810896867632467 18.292288924364659 0.496293587052357
-1.819622681609092 18.319935761869658 6.439102901758357
-0.663583068783336 7.340277832327126 1.630596766133060
-0.672308882759961 7.367924669832126 7.573406080839060
-3.764983028595733 12.726880100611126 1.601291081939060
-3.773708842572359 12.754526938116125 7.544100396645060
2.454728352132861 12.716452427587125 1.610181857964060
2.446002538156236 12.744099265092126 7.552991172670060
-0.646671607679536 18.103054695871126 1.580876173770060
-0.655397421656161 18.130701533376126 7.523685488476060
0.300715228836807 6.935217472820593 3.614728761766080
0.291989414860182 6.962864310325593 9.557538076472081
-2.800684730975590 12.321819741104594 3.585423077572080
-2.809410544952216 12.349466578609594 9.528232392278081
3.419026649753004 12.311392068080593 3.594313853597080
3.410300835776379 12.339038905585593 9.537123168303081
0.317626689940606 17.697994336364594 3.565008169403080
0.308900875963981 17.725641173869594 9.507817484109081
0.173061639280272 7.988958098801410 5.590652401835019
0.164335825303647 8.016604936306409 11.533461716541019
-2.928338320532125 13.375560367085409 5.561346717641019
-2.937064134508750 13.403207204590410 11.504156032347019
3.291373060196469 13.365132694061410 5.570237493666019
3.282647246219844 13.392779531566411 11.513046808372019
0.189973100384072 18.751734962345409 5.540931809472019
0.181247286407447 18.779381799850412 11.483741124178019
-0.077813558716735 1.323933249602572 5.872738707363856
-0.086539372693360 1.351580087107572 11.815548022069857
-3.179213518529133 6.710535517886573 5.843433023169856
-3.187939332505758 6.738182355391573 11.786242337875857
3.040497862199462 6.700107844862573 5.852323799194856
3.031772048222837 6.727754682367573 11.795133113900857
-0.060902097612935 12.086710113146573 5.823018115000856
-0.069627911589560 12.114356950651572 11.765827429706857
2.122625710846358 5.082768049158548 1.896254253800760
2.113899896869733 5.110414886663548 7.839063568506761
-0.978774248966039 10.469370317442548 1.866948569606760
-0.987500062942664 10.497017154947549 7.809757884312761
5.240937131762556 10.458942644418549 1.875839345631760
5.232211317785930 10.486589481923549 7.818648660337761
2.139537171950157 15.845544912702550 1.846533661437760
2.130811357973533 15.873191750207550 7.789342976143761
-2.253652772605994 5.102269194974025 3.871260113836954
-2.262378586582619 5.129916032479025 9.814069428542954
-5.355052732418391 10.488871463258025 3.841954429642954
-5.363778546395016 10.516518300763025 9.784763744348954
0.864658648310204 10.478443790234024 3.850845205667954
0.855932834333578 10.506090627739026 9.793654520373954
-2.236741311502194 15.865046058518026 3.821539521473954
-2.245467125478819 15.892692896023025 9.764348836179954
-0.059813404052558 6.347952971993556 2.888144789503635
-0.068539218029183 6.375599809498556 8.830954104209635
-3.161213363864956 11.734555240277556 2.858839105309635
-3.169939177841580 11.762202077782558 8.801648420015635
3.058498016863639 11.724127567253557 2.867729881334635
3.049772202887013 11.751774404758557 8.810539196040635
-0.042901942948759 17.110729835537558 2.838424197140635
-0.051627756925384 17.138376673042558 8.781233511846635
0.860561686197644 7.964741187451218 4.862726180546602
0.851835872221019 7.992388024956218 10.805535495252602
-2.240838273614754 13.351343455735218 4.833420496352602
-2.249564087591379 13.378990293240218 10.776229811058602
3.978873107113841 13.340915782711217 4.842311272377602
3.970147293137215 13.368562620216219 10.785120587083602
0.877473147301443 18.727518050995219 4.813005588183602
0.868747333324818 18.755164888500218 10.755814902889602
-0.987330447134138 7.941993938213103 0.898546988891357
-0.996056261110763 7.969640775718103 6.841356303597357
-4.088730406946535 13.328596206497103 0.869241304697357
-4.097456220923160 13.356243044002102 6.812050619403357
2.130980973782059 13.318168533473102 0.878132080722357
2.122255159805434 13.345815370978103 6.820941395428357
-0.970418986030338 18.704770801757103 0.848826396528357
-0.979144800006963 18.732417639262103 6.791635711234357
