DMC-ICE13 ice VIII; Cartesian 1x1x1 supercell
1.0
4.849465370000000 0.000000000000000 0.000000000000000
0.000000000000000 4.849465370000000 0.000000000000000
0.000000000000000 0.000000000000000 7.056513790000000
H O
16 8
Cartesian
6.781516750000000 7.563033500000000 6.966619500000000
9.206249250000001 9.987766000000001 10.494876500000000
6.000000000000000 9.206249250000001 8.730748000000000
9.987766000000001 6.781516750000000 12.259005000000000
9.206249250000001 7.563033500000000 7.764128500000000
9.206249250000001 6.000000000000000 7.764128500000000
9.987766000000001 9.206249250000001 6.000000000000000
6.000000000000000 6.781516750000000 9.528257000000000
8.424732499999999 9.206249250000001 6.000000000000000
8.424732499999999 6.781516750000000 12.259005000000000
6.781516750000000 6.000000000000000 6.966619500000000
7.563033500000000 9.206249250000001 8.730748000000000
7.563033500000000 6.781516750000000 9.528257000000000
9.206249250000001 8.424732499999999 10.494876500000000
6.781516750000000 9.987766000000001 11.292385500000000
6.781516750000000 8.424732499999999 11.292385500000000
6.781516750000000 6.781516750000000 6.368001500000000
6.781516750000000 9.206249250000001 8.132130000000000
9.206249250000001 6.781516750000000 11.660387000000000
9.206249250000001 6.781516750000000 8.362746500000000
9.206249250000001 9.206249250000001 6.598618000000000
6.781516750000000 6.781516750000000 10.126875000000000
9.206249250000001 9.206249250000001 9.896258500000000
6.781516750000000 9.206249250000001 11.891003500000000
