&GLOBAL
  PRINT_LEVEL LOW
  PROJECT ice_IV_GFN1
  RUN_TYPE ENERGY
&END GLOBAL

&FORCE_EVAL
  METHOD Quickstep
  &DFT
    &QS
      EPS_DEFAULT 1.0E-12
      METHOD xTB
      &XTB
        GFN_TYPE TBLITE
        &TBLITE
          METHOD GFN1
          ACCURACY 0.1
        &END TBLITE
      &END XTB
    &END QS
    &SCF
      EPS_SCF 1.0E-9
      MAX_SCF 300
      SCF_GUESS MOPAC
      &MIXING
        METHOD DIRECT_P_MIXING
        ALPHA 0.2
      &END MIXING
      &PRINT
        &RESTART OFF
        &END RESTART
      &END PRINT
    &END SCF
  &END DFT
  &SUBSYS
    &CELL
      PERIODIC XYZ
      A 7.781780160302 0.124696954091 0.159032926490
      B 2.766010328338 7.274671407731 0.159032935415
      C 2.823962671370 1.981034073860 7.017194098954
    &END CELL
    &COORD
      SCALED
      H   0.326773201220  0.814303867381  0.886966826322
      H   0.453877705341  0.968166565801  0.758937195571
      H   0.166418993370  0.108539339301  0.679294366063
      H   0.515920039907  0.721112390196  0.655049056721
      H   0.759646443686  0.451335095621  0.979465288873
      H   0.673456296114  0.170747647381  0.108991333167
      H   0.989063013613  0.279725051693  0.737868489041
      H   0.697894462935  0.445785330808  0.812004440427
      H   0.779725028035  0.489063066869  0.237868489044
      H   0.608539325666  0.666418932763  0.179294366053
      H   0.857926895058  0.778646642869  0.976712245984
      H   0.730945566407  0.989920518859  0.280009905329
      H   0.468166509328  0.953877800818  0.258937195566
      H   0.482149770133  0.286837934813  0.344981677644
      H   0.980700537226  0.760984883414  0.448064488923
      H   0.108597401985  0.677453642430  0.165361944512
      H   0.814047295698  0.696678712054  0.441488244775
      H   0.177453702036  0.608597356510  0.665361944546
      H   0.314303825624  0.826773275198  0.386966826320
      H   0.045931442826  0.809446532079  0.687967519673
      H   0.260984886813  0.480700588689  0.948064488911
      H   0.309446510819  0.545931469266  0.187967519725
      H   0.489920466140  0.230945656410  0.780009905309
      H   0.670747689142  0.173456222147  0.608991333157
      H   0.786837976930  0.982149789699  0.844981677595
      H   0.196678609330  0.314047292557  0.941488244778
      H   0.951335027410  0.259646418027  0.479465288895
      H   0.278646641867  0.357926889313  0.476712245955
      H   0.945785357247  0.197894441696  0.312004440462
      H   0.221112348064  0.015920020360  0.155049056769
      H   0.054971782336  0.043418252313  0.069626611365
      H   0.543418192272  0.554971842393  0.569626611350
      O   0.372027629892  0.898056660237  0.754808215890
      O   0.769149495245  0.363474907862  0.909429997492
      O   0.738962833052  0.589940945846  0.125668675952
      O   0.619272308605  0.089844858255  0.238905011396
      O   0.909305461388  0.772936162431  0.360262318128
      O   0.127033401812  0.739584609649  0.586577214971
      O   0.239584515685  0.627033437860  0.086577214954
      O   0.589844879103  0.119272380307  0.738905011424
      O   0.272936234054  0.409305540274  0.860262318134
      O   0.089941024647  0.238962904776  0.625668675944
      O   0.863474943933  0.269149401296  0.409429997440
      O   0.398056639390  0.872027558151  0.254808215897
      O   0.107413269554  0.112669261035  0.109693593469
      O   0.391634286977  0.403937265469  0.381865482944
      O   0.903937314012  0.891634238410  0.881865482965
      O   0.612669212405  0.607413318118  0.609693593529
    &END COORD
  &END SUBSYS
&END FORCE_EVAL
