&GLOBAL
  PRINT_LEVEL LOW
  PROJECT AlP_GXTB_independent_eos_minimum_k777
  RUN_TYPE ENERGY
&END GLOBAL

&FORCE_EVAL
  METHOD Quickstep
  &DFT
    &QS
      EPS_DEFAULT 1.0E-12
      METHOD xTB
      &XTB
        GFN_TYPE TBLITE
        SCC_MIXER TBLITE
        &TBLITE
          METHOD GXTB
          ACCURACY 0.05
        &END TBLITE
      &END XTB
    &END QS
    &KPOINTS
      SCHEME MACDONALD 7 7 7 0 0 0
      SYMMETRY T
      FULL_GRID F
      SYMMETRY_BACKEND SPGLIB
      SYMMETRY_REDUCTION_METHOD SPGLIB
    &END KPOINTS
    &SCF
      EPS_SCF 1.0E-9
      MAX_SCF 300
      SCF_GUESS MOPAC
      &MIXING
        METHOD DIRECT_P_MIXING
        ALPHA 0.2
      &END MIXING
      &PRINT
        &RESTART OFF
          BACKUP_COPIES 0
        &END RESTART
      &END PRINT
    &END SCF
  &END DFT
  &SUBSYS
    &CELL
      CANONICALIZE TRUE
      ABC 5.180643026600 5.180643026600 5.180643026600
      PERIODIC XYZ
      SYMMETRY CUBIC
    &END CELL
    &COORD
      SCALED
      Al  0.000000000000  0.000000000000  0.000000000000
      Al  0.000000000000  0.500000000000  0.500000000000
      Al  0.500000000000  0.000000000000  0.500000000000
      Al  0.500000000000  0.500000000000  0.000000000000
      P   0.250000000000  0.250000000000  0.250000000000
      P   0.250000000000  0.750000000000  0.750000000000
      P   0.750000000000  0.250000000000  0.750000000000
      P   0.750000000000  0.750000000000  0.250000000000
    &END COORD
  &END SUBSYS
&END FORCE_EVAL
