&GLOBAL
  PRINT_LEVEL LOW
  PROJECT naphthalene_GFN1_gamma_cell_opt
  RUN_TYPE CELL_OPT
&END GLOBAL

&FORCE_EVAL
  METHOD Quickstep
  STRESS_TENSOR ANALYTICAL
  &DFT
    &QS
      EPS_DEFAULT 1.0E-12
      METHOD xTB
      &XTB
        GFN_TYPE TBLITE
        &TBLITE
          METHOD GFN1
          ACCURACY 0.1
        &END TBLITE
      &END XTB
    &END QS
    &SCF
      EPS_SCF 1.0E-9
      MAX_SCF 300
      SCF_GUESS MOPAC
      &MIXING
        METHOD DIRECT_P_MIXING
        ALPHA 0.2
      &END MIXING
    &END SCF
  &END DFT
  &SUBSYS
    &CELL
      PERIODIC XYZ
      A 8.084600000000 0.000000000000 0.000000000000
      B 0.000000000000 5.937500000000 0.000000000000
      C -4.911529375404 0.000000000000 7.100295870211
    &END CELL
    &COORD
      SCALED
      C   0.081990000000  0.019790000000  0.329500000000
      C   0.918010000000  0.980210000000  0.670500000000
      C   0.581990000000  0.480210000000  0.329500000000
      C   0.418010000000  0.519790000000  0.670500000000
      C   0.112650000000  0.164490000000  0.223410000000
      C   0.887350000000  0.835510000000  0.776590000000
      C   0.612650000000  0.335510000000  0.223410000000
      C   0.387350000000  0.664490000000  0.776590000000
      C   0.048110000000  0.105880000000  0.037490000000
      C   0.951890000000  0.894120000000  0.962510000000
      C   0.548110000000  0.394120000000  0.037490000000
      C   0.451890000000  0.605880000000  0.962510000000
      C   0.076880000000  0.252680000000  0.924640000000
      C   0.923120000000  0.747320000000  0.075360000000
      C   0.576880000000  0.247320000000  0.924640000000
      C   0.423120000000  0.752680000000  0.075360000000
      C   0.985970000000  0.808920000000  0.254650000000
      C   0.014030000000  0.191080000000  0.745350000000
      C   0.485970000000  0.691080000000  0.254650000000
      C   0.514030000000  0.308920000000  0.745350000000
      H   0.127300000000  0.061500000000  0.462800000000
      H   0.872700000000  0.938500000000  0.537200000000
      H   0.627300000000  0.438500000000  0.462800000000
      H   0.372700000000  0.561500000000  0.537200000000
      H   0.180100000000  0.308000000000  0.271700000000
      H   0.819900000000  0.692000000000  0.728300000000
      H   0.680100000000  0.192000000000  0.271700000000
      H   0.319900000000  0.808000000000  0.728300000000
      H   0.141300000000  0.392000000000  0.974100000000
      H   0.858700000000  0.608000000000  0.025900000000
      H   0.641300000000  0.108000000000  0.974100000000
      H   0.358700000000  0.892000000000  0.025900000000
      H   0.962800000000  0.706000000000  0.331500000000
      H   0.037200000000  0.294000000000  0.668500000000
      H   0.462800000000  0.794000000000  0.331500000000
      H   0.537200000000  0.206000000000  0.668500000000
    &END COORD
  &END SUBSYS
&END FORCE_EVAL

&MOTION
  &CELL_OPT
    OPTIMIZER BFGS
    MAX_ITER 200
    EXTERNAL_PRESSURE 0.0
  &END CELL_OPT
&END MOTION
