 # Version information for this restart file 
 # current date 2026-05-23 22:48:17.311
 # current working dir /home/kuehne88/periodic-gfn2-benchmarks/X23b/runs/cellopt_gamma/GFN1/adamantane_GFN1_gamma_cellopt
 # Program compiled at                                       2026-05-23 22:05:08
 # Program compiled on                                                spark-c86c
 # Program compiled for                                                  aarch64
 # Source code revision number                                        0622d442e4
 &GLOBAL
   PRINT_LEVEL LOW
   PROJECT_NAME "adamantane_GFN1_gamma_cell_opt"
   RUN_TYPE CELL_OPT
 &END GLOBAL
 &MOTION
   &CELL_OPT
     OPTIMIZER BFGS
     MAX_ITER 800
     STEP_START_VAL 200
     EXTERNAL_PRESSURE  0.0000000000000000E+000
   &END CELL_OPT
 &END MOTION
 &FORCE_EVAL
   METHOD QS
   STRESS_TENSOR ANALYTICAL
   &DFT
     &SCF
       MAX_SCF 300
       EPS_SCF  1.0000000000000001E-009
       SCF_GUESS MOPAC
       &MIXING T
         METHOD DIRECT_P_MIXING
         ALPHA  2.0000000000000001E-001
       &END MIXING
     &END SCF
     &QS
       EPS_DEFAULT  9.9999999999999998E-013
       METHOD XTB
       &XTB
         GFN_TYPE TBLITE
         &TBLITE T
           METHOD GFN1
           ACCURACY  1.0000000000000001E-001
         &END TBLITE
       &END XTB
     &END QS
   &END DFT
   &SUBSYS
     &CELL
       A  7.2855763352924905E+000  0.0000000000000000E+000  0.0000000000000000E+000
       B  2.1884314771899686E-013  7.2855763352919132E+000  0.0000000000000000E+000
       C -1.0099258325084714E-012 -3.7845921316778939E-012  7.5141419970312278E+000
       PERIODIC XYZ
       MULTIPLE_UNIT_CELL 1 1 1
     &END CELL
     &COORD
       C  8.2864681132141635E-015  1.0000000000000344E+000  2.3531364771457394E-001
       C  5.0000000000000133E-001  5.0000000000000311E-001  2.6468635228544229E-001
       C  4.9999999999999090E-001  5.0000000000011369E-001  7.3531364771447794E-001
       C  1.7824741908828617E-014 -1.1390028537673535E-013  7.6468635228556314E-001
       C  9.1714391602098833E-001  1.4990397997210775E-001  1.1742002650319992E-001
       C  4.1714391602107553E-001  3.5009602002798079E-001  3.8257997349679862E-001
       C  6.4990397997207650E-001  4.1714391602112311E-001  6.1742002650308048E-001
       C  1.4990397997213725E-001  8.2856083978835898E-002  8.8257997349693718E-001
       C  8.5009602002789575E-001  9.1714391602109613E-001  8.8257997349695094E-001
       C  3.5009602002789436E-001  5.8285608397899225E-001  6.1742002650308603E-001
       C  5.8285608397889899E-001  6.4990397997211069E-001  3.8257997349690104E-001
       C  8.2856083979022360E-002  8.5009602002795914E-001  1.1742002650310247E-001
       C  6.4931392681636460E-002  2.3348354872298907E-001 -2.2756750911915760E-003
       C  5.6493139268167825E-001  2.6651645127702062E-001  5.0227567509117976E-001
       C  7.3348354872301991E-001  5.6493139268167147E-001  4.9772432490868307E-001
       C  2.3348354872315855E-001  9.3506860731822927E-001  2.2756750913051067E-003
       C  7.6651645127684487E-001  6.4931392681703212E-002  2.2756750914071843E-003
       C  2.6651645127695373E-001  4.3506860731835839E-001  4.9772432490862822E-001
       C  4.3506860731824298E-001  7.3348354872303978E-001  5.0227567509130489E-001
       C  9.3506860731836794E-001  7.6651645127702561E-001 -2.2756750912961846E-003
       H  1.0612261566830139E-001  5.8114273682506365E-002  3.2135189646569673E-001
       H  6.0612261566842229E-001  4.4188572631773437E-001  1.7864810353443811E-001
       H  5.5811427368233257E-001  6.0612261566845116E-001  8.2135189646563767E-001
       H  5.8114273682153224E-002  8.9387738433147435E-001  6.7864810353442839E-001
       H  9.4188572631788470E-001  1.0612261566823661E-001  6.7864810353444882E-001
       H  4.4188572631761031E-001  3.9387738433179381E-001  8.2135189646552098E-001
       H  3.9387738433159603E-001  5.5811427368214550E-001  1.7864810353436378E-001
       H  8.9387738433169850E-001  9.4188572631760625E-001  3.2135189646564288E-001
       H  8.5860495951820459E-001  2.5867128364306768E-001  2.0071509601930268E-001
       H  3.5860495951815802E-001  2.4132871635702666E-001  2.9928490398075047E-001
       H  7.5867128364299774E-001  3.5860495951825655E-001  7.0071509601912352E-001
       H  2.5867128364304470E-001  1.4139504048175353E-001  7.9928490398090957E-001
       H  7.4132871635698960E-001  8.5860495951814819E-001  7.9928490398088703E-001
       H  2.4132871635693290E-001  6.4139504048178275E-001  7.0071509601913062E-001
       H  6.4139504048181228E-001  7.5867128364306968E-001  2.9928490398094931E-001
       H  1.4139504048182747E-001  7.4132871635704056E-001  2.0071509601912654E-001
       H  1.7121776759464041E-001  2.9946369820346258E-001  7.7713913887923994E-002
       H  6.7121776759479246E-001  2.0053630179654180E-001  4.2228608611221796E-001
       H  7.9946369820354612E-001  6.7121776759469465E-001  5.7771391388771920E-001
       H  2.9946369820367313E-001  8.2878223240506721E-001  9.2228608611234975E-001
       H  7.0053630179635851E-001  1.7121776759477239E-001  9.2228608611247509E-001
       H  2.0053630179647938E-001  3.2878223240527954E-001  5.7771391388755777E-001
       H  3.2878223240509846E-001  7.9946369820350049E-001  4.2228608611239166E-001
       H  8.2878223240539162E-001  7.0053630179647675E-001  7.7713913887695010E-002
       H  3.0003773967532395E-003  3.3898681988465307E-001  9.1339546524196791E-001
       H  5.0300037739661174E-001  1.6101318011529095E-001  5.8660453475786090E-001
       H  8.3898681988462376E-001  5.0300037739661729E-001  4.1339546524184773E-001
       H  3.3898681988487706E-001  9.9699962260326536E-001  8.6604534758083052E-002
       H  6.6101318011516430E-001  3.0003773967013886E-003  8.6604534758164473E-002
       H  1.6101318011522636E-001  4.9699962260328157E-001  4.1339546524183246E-001
       H  4.9699962260328573E-001  8.3898681988470780E-001  5.8660453475816288E-001
       H  9.9699962260330610E-001  6.6101318011544585E-001  9.1339546524173820E-001
       SCALED T
     &END COORD
     &TOPOLOGY
       NUMBER_OF_ATOMS 52
       MULTIPLE_UNIT_CELL 1 1 1
     &END TOPOLOGY
   &END SUBSYS
 &END FORCE_EVAL
