DMC-ICE13 ice VI; Cartesian 4x4x4 supercell
1.0
24.908129589820000 -0.065571149588000 0.016181674068000
-0.203837047316000 24.911274085296000 0.047815093852000
0.136646807188000 -0.079027378696000 23.307597237620001
H O
1280 640
Cartesian
2.709738835266305 1.508480876386175 0.029839042788471
2.743900537063305 1.488724031712175 5.856738352193472
2.778062238860305 1.468967187038175 11.683637661598471
2.812223940657305 1.449210342364175 17.510536971003472
2.658779573437305 7.736299397710175 0.041792816251471
2.692941275234305 7.716542553036175 5.868692125656472
2.727102977031305 7.696785708362174 11.695591435061472
2.761264678828305 7.677028863688175 17.522490744466470
2.607820311608305 13.964117919034175 0.053746589714471
2.641982013405305 13.944361074360176 5.880645899119472
2.676143715202305 13.924604229686175 11.707545208524472
2.710305416999305 13.904847385012175 17.534444517929472
2.556861049779305 20.191936440358177 0.065700363177471
2.591022751576305 20.172179595684177 5.892599672582472
2.625184453373305 20.152422751010178 11.719498981987471
2.659346155170305 20.132665906336175 17.546398291392471
8.936771232721306 1.492088088989175 0.033884461305471
8.970932934518306 1.472331244315175 5.860783770710472
9.005094636315306 1.452574399641175 11.687683080115471
9.039256338112304 1.432817554967175 17.514582389520470
8.885811970892306 7.719906610313175 0.045838234768471
8.919973672689306 7.700149765639175 5.872737544173471
8.954135374486306 7.680392920965175 11.699636853578472
8.988297076283304 7.660636076291174 17.526536162983472
8.834852709063306 13.947725131637174 0.057792008231471
8.869014410860306 13.927968286963175 5.884691317636472
8.903176112657306 13.908211442289176 11.711590627041470
8.937337814454304 13.888454597615175 17.538489936446471
8.783893447234306 20.175543652961178 0.069745781694471
8.818055149031306 20.155786808287175 5.896645091099471
8.852216850828306 20.136029963613176 11.723544400504471
8.886378552625304 20.116273118939176 17.550443709909473
15.163803630176306 1.475695301592175 0.037929879822471
15.197965331973306 1.455938456918175 5.864829189227471
15.232127033770306 1.436181612244175 11.691728498632472
15.266288735567306 1.416424767570175 17.518627808037472
15.112844368347305 7.703513822916175 0.049883653285471
15.147006070144306 7.683756978242175 5.876782962690472
15.181167771941306 7.664000133568175 11.703682272095470
15.215329473738306 7.644243288894175 17.530581581500471
15.061885106518305 13.931332344240175 0.061837426748471
15.096046808315306 13.911575499566174 5.888736736153472
15.130208510112306 13.891818654892175 11.715636045558471
15.164370211909306 13.872061810218176 17.542535354963473
15.010925844689305 20.159150865564175 0.073791200211471
15.045087546486306 20.139394020890176 5.900690509616472
15.079249248283306 20.119637176216177 11.727589819021471
15.113410950080306 20.099880331542177 17.554489128426471
21.390836027631305 1.459302514195175 0.041975298339471
21.424997729428306 1.439545669521175 5.868874607744472
21.459159431225306 1.419788824847175 11.695773917149472
21.493321133022306 1.400031980173175 17.522673226554470
21.339876765802305 7.687121035519175 0.053929071802471
21.374038467599306 7.667364190845174 5.880828381207472
21.408200169396306 7.647607346171175 11.707727690612471
21.442361871193306 7.627850501497175 17.534627000017473
21.288917503973305 13.914939556843175 0.065882845265471
21.323079205770306 13.895182712169175 5.892782154670472
21.357240907567306 13.875425867495174 11.719681464075471
21.391402609364306 13.855669022821175 17.546580773480471
21.237958242144305 20.142758078167176 0.077836618728471
21.272119943941306 20.123001233493177 5.904735928133472
21.306281645738306 20.103244388819178 11.731635237538471
21.340443347535306 20.083487544145175 17.558534546943470
3.246712792519051 4.605428703867755 5.737281443867790
3.280874494316051 4.585671859193755 11.564180753272790
3.315036196113051 4.565915014519755 17.391080062677791
3.349197897910051 4.546158169845755 23.217979372082791
3.195753530690051 10.833247225191755 5.749235217330790
3.229915232487051 10.813490380517756 11.576134526735791
3.264076934284051 10.793733535843755 17.403033836140793
3.298238636081051 10.773976691169755 23.229933145545790
3.144794268861051 17.061065746515755 5.761188990793790
3.178955970658051 17.041308901841756 11.588088300198791
3.213117672455051 17.021552057167753 17.414987609603791
3.247279374252051 17.001795212493754 23.241886919008792
3.093835007032051 23.288884267839755 5.773142764256790
3.127996708829051 23.269127423165756 11.600042073661790
3.162158410626051 23.249370578491757 17.426941383066790
3.196320112423051 23.229613733817754 23.253840692471790
9.473745189974050 4.589035916470755 5.741326862384790
9.507906891771050 4.569279071796755 11.568226171789791
9.542068593568050 4.549522227122755 17.395125481194789
9.576230295365050 4.529765382448755 23.222024790599789
9.422785928145050 10.816854437794756 5.753280635847790
9.456947629942050 10.797097593120755 11.580179945252791
9.491109331739050 10.777340748446754 17.407079254657791
9.525271033536050 10.757583903772755 23.233978564062792
9.371826666316050 17.044672959118756 5.765234409310790
9.405988368113050 17.024916114444757 11.592133718715790
9.440150069910050 17.005159269770758 17.419033028120790
9.474311771707050 16.985402425096755 23.245932337525790
9.320867404487050 23.272491480442756 5.777188182773790
9.355029106284050 23.252734635768753 11.604087492178790
9.389190808081050 23.232977791094754 17.430986801583792
9.423352509878050 23.213220946420755 23.257886110988792
15.700777587429052 4.572643129073755 5.745372280901790
15.734939289226052 4.552886284399755 11.572271590306791
15.769100991023052 4.533129439725755 17.399170899711791
15.803262692820052 4.513372595051755 23.226070209116791
15.649818325600052 10.800461650397756 5.757326054364790
15.683980027397052 10.780704805723754 11.584225363769789
15.718141729194052 10.760947961049755 17.411124673174790
15.752303430991052 10.741191116375756 23.238023982579790
15.598859063771052 17.028280171721754 5.769279827827790
15.633020765568052 17.008523327047754 11.596179137232792
15.667182467365052 16.988766482373755 17.423078446637788
15.701344169162052 16.969009637699756 23.249977756042792
15.547899801942052 23.256098693045754 5.781233601290790
15.582061503739052 23.236341848371755 11.608132910695790
15.616223205536052 23.216585003697755 17.435032220100791
15.650384907333052 23.196828159023756 23.261931529505791
21.927809984884053 4.556250341676755 5.749417699418790
21.961971686681053 4.536493497002755 11.576317008823789
21.996133388478054 4.516736652328755 17.403216318228793
22.030295090275054 4.496979807654755 23.230115627633790
21.876850723055053 10.784068863000755 5.761371472881790
21.911012424852053 10.764312018326756 11.588270782286791
21.945174126649054 10.744555173652756 17.415170091691792
21.979335828446054 10.724798328978755 23.242069401096792
21.825891461226053 17.011887384324755 5.773325246344790
21.860053163023053 16.992130539650756 11.600224555749790
21.894214864820054 16.972373694976753 17.427123865154790
21.928376566617054 16.952616850302753 23.254023174559791
21.774932199397053 23.239705905648755 5.785279019807790
21.809093901194053 23.219949060974756 11.612178329212790
21.843255602991054 23.200192216300756 17.439077638617789
21.877417304788054 23.180435371626753 23.265976948022789
0.158730535734869 1.484656052799478 0.036790442036825
0.192892237531869 1.464899208125478 5.863689751441825
0.227053939328869 1.445142363451478 11.690589060846825
0.261215641125869 1.425385518777478 17.517488370251826
0.107771273905869 7.712474574123478 0.048744215499825
0.141932975702869 7.692717729449478 5.875643524904826
0.176094677499869 7.672960884775478 11.702542834309826
0.210256379296869 7.653204040101478 17.529442143714824
0.056812012076869 13.940293095447478 0.060697988962825
0.090973713873869 13.920536250773479 5.887597298367825
0.125135415670869 13.900779406099478 11.714496607772826
0.159297117467869 13.881022561425478 17.541395917177827
0.005852750247869 20.168111616771480 0.072651762425825
0.040014452044869 20.148354772097480 5.899551071830825
0.074176153841869 20.128597927423481 11.726450381235825
0.108337855638869 20.108841082749478 17.553349690640825
6.385762933189869 1.468263265402478 0.040835860553825
6.419924634986869 1.448506420728478 5.867735169958825
6.454086336783869 1.428749576054478 11.694634479363826
6.488248038580869 1.408992731380478 17.521533788768824
6.334803671360869 7.696081786726478 0.052789634016825
6.368965373157869 7.676324942052478 5.879688943421825
6.403127074954869 7.656568097378478 11.706588252826826
6.437288776751869 7.636811252704478 17.533487562231826
6.283844409531869 13.923900308050477 0.064743407479825
6.318006111328869 13.904143463376478 5.891642716884825
6.352167813125869 13.884386618702479 11.718542026289825
6.386329514922869 13.864629774028478 17.545441335694825
6.232885147702869 20.151718829374481 0.076697180942825
6.267046849499869 20.131961984700478 5.903596490347825
6.301208551296869 20.112205140026479 11.730495799752825
6.335370253093869 20.092448295352479 17.557395109157827
12.612795330644868 1.451870478005478 0.044881279070825
12.646957032441868 1.432113633331478 5.871780588475825
12.681118734238868 1.412356788657478 11.698679897880826
12.715280436035869 1.392599943983478 17.525579207285826
12.561836068815868 7.679688999329478 0.056835052533825
12.595997770612868 7.659932154655478 5.883734361938825
12.630159472409868 7.640175309981478 11.710633671343825
12.664321174206869 7.620418465307478 17.537532980748825
12.510876806986868 13.907507520653478 0.068788825996825
12.545038508783868 13.887750675979477 5.895688135401826
12.579200210580868 13.867993831305478 11.722587444806825
12.613361912377869 13.848236986631479 17.549486754211827
12.459917545157868 20.135326041977478 0.080742599459825
12.494079246954868 20.115569197303479 5.907641908864825
12.528240948751868 20.095812352629480 11.734541218269825
12.562402650548869 20.076055507955481 17.561440527674826
18.839827728099870 1.435477690608478 0.048926697587825
18.873989429896870 1.415720845934478 5.875826006992825
18.908151131693870 1.395964001260478 11.702725316397826
18.942312833490870 1.376207156586478 17.529624625802825
18.788868466270870 7.663296211932478 0.060880471050825
18.823030168067870 7.643539367258477 5.887779780455825
18.857191869864870 7.623782522584478 11.714679089860825
18.891353571661870 7.604025677910478 17.541578399265827
18.737909204441870 13.891114733256478 0.072834244513825
18.772070906238870 13.871357888582478 5.899733553918825
18.806232608035870 13.851601043908477 11.726632863323825
18.840394309832870 13.831844199234478 17.553532172728826
18.686949942612870 20.118933254580480 0.084788017976825
18.721111644409870 20.099176409906480 5.911687327381825
18.755273346206870 20.079419565232481 11.738586636786826
18.789435048003870 20.059662720558478 17.565485946191824
5.797809566714232 4.628953438010894 5.730216198466852
5.831971268511232 4.609196593336894 11.557115507871853
5.866132970308232 4.589439748662894 17.384014817276853
5.900294672105232 4.569682903988895 23.210914126681853
5.746850304885232 10.856771959334894 5.742169971929853
5.781012006682232 10.837015114660893 11.569069281334853
5.815173708479232 10.817258269986894 17.395968590739855
5.849335410276232 10.797501425312895 23.222867900144852
5.695891043056232 17.084590480658896 5.754123745392852
5.730052744853232 17.064833635984897 11.581023054797853
5.764214446650232 17.045076791310894 17.407922364202854
5.798376148447232 17.025319946636895 23.234821673607854
5.644931781227232 23.312409001982893 5.766077518855853
5.679093483024232 23.292652157308893 11.592976828260852
5.713255184821232 23.272895312634894 17.419876137665852
5.747416886618232 23.253138467960895 23.246775447070853
12.024841964169232 4.612560650613895 5.734261616983853
12.059003665966232 4.592803805939894 11.561160926388853
12.093165367763232 4.573046961265894 17.388060235793851
12.127327069560231 4.553290116591894 23.214959545198852
11.973882702340232 10.840379171937894 5.746215390446852
12.008044404137232 10.820622327263894 11.573114699851853
12.042206105934232 10.800865482589895 17.400014009256854
12.076367807731231 10.781108637915894 23.226913318661854
11.922923440511232 17.068197693261894 5.758169163909852
11.957085142308232 17.048440848587894 11.585068473314852
11.991246844105232 17.028684003913895 17.411967782719852
12.025408545902231 17.008927159239896 23.238867092124853
11.871964178682232 23.296016214585897 5.770122937372852
11.906125880479232 23.276259369911891 11.597022246777852
11.940287582276232 23.256502525237892 17.423921556182854
11.974449284073231 23.236745680563892 23.250820865587855
18.251874361624232 4.596167863216895 5.738307035500852
18.286036063421232 4.576411018542895 11.565206344905853
18.320197765218232 4.556654173868894 17.392105654310853
18.354359467015232 4.536897329194894 23.219004963715854
18.200915099795232 10.823986384540895 5.750260808963852
18.235076801592232 10.804229539866895 11.577160118368852
18.269238503389232 10.784472695192894 17.404059427773852
18.303400205186232 10.764715850518893 23.230958737178852
18.149955837966232 17.051804905864895 5.762214582426853
18.184117539763232 17.032048061190892 11.589113891831854
18.218279241560232 17.012291216516893 17.416013201236851
18.252440943357232 16.992534371842893 23.242912510641855
18.098996576137232 23.279623427188895 5.774168355889852
18.133158277934232 23.259866582514896 11.601067665294853
18.167319979731232 23.240109737840896 17.427966974699853
18.201481681528232 23.220352893166897 23.254866284104853
24.478906759079234 4.579775075819894 5.742352454017852
24.513068460876234 4.560018231145894 11.569251763422852
24.547230162673234 4.540261386471895 17.396151072827855
24.581391864470234 4.520504541797894 23.223050382232852
24.427947497250234 10.807593597143894 5.754306227480853
24.462109199047234 10.787836752469893 11.581205536885854
24.496270900844234 10.768079907795894 17.408104846290854
24.530432602641234 10.748323063121894 23.235004155695854
24.376988235421233 17.035412118467896 5.766260000943852
24.411149937218234 17.015655273793897 11.593159310348852
24.445311639015234 16.995898429119894 17.420058619753853
24.479473340812234 16.976141584445894 23.246957929158853
24.326028973592233 23.263230639791892 5.778213774406852
24.360190675389234 23.243473795117893 11.605113083811853
24.394352377186234 23.223716950443894 17.432012393216851
24.428514078983234 23.203960105769895 23.258911702621852
1.402838521519490 2.235886110487778 2.007602213737871
1.437000223316490 2.216129265813778 7.834501523142871
1.471161925113490 2.196372421139778 13.661400832547871
1.505323626910490 2.176615576465778 19.488300141952873
1.351879259690490 8.463704631811778 2.019555987200871
1.386040961487490 8.443947787137777 7.846455296605871
1.420202663284490 8.424190942463778 13.673354606010871
1.454364365081490 8.404434097789778 19.500253915415872
1.300919997861490 14.691523153135778 2.031509760663871
1.335081699658490 14.671766308461779 7.858409070068872
1.369243401455490 14.652009463787778 13.685308379473872
1.403405103252490 14.632252619113778 19.512207688878874
1.249960736032490 20.919341674459780 2.043463534126871
1.284122437829490 20.899584829785780 7.870362843531872
1.318284139626490 20.879827985111781 13.697262152936871
1.352445841423490 20.860071140437775 19.524161462341873
7.629870918974490 2.219493323090778 2.011647632254871
7.664032620771490 2.199736478416778 7.838546941659871
7.698194322568490 2.179979633742778 13.665446251064871
7.732356024365489 2.160222789068778 19.492345560469872
7.578911657145490 8.447311844414777 2.023601405717871
7.613073358942490 8.427554999740778 7.850500715122871
7.647235060739490 8.407798155066779 13.677400024527872
7.681396762536489 8.388041310392778 19.504299333932874
7.527952395316490 14.675130365738777 2.035555179180871
7.562114097113490 14.655373521064778 7.862454488585872
7.596275798910490 14.635616676390779 13.689353797990870
7.630437500707489 14.615859831716778 19.516253107395872
7.476993133487490 20.902948887062777 2.047508952643871
7.511154835284490 20.883192042388778 7.874408262048870
7.545316537081490 20.863435197714779 13.701307571453871
7.579478238878489 20.843678353040779 19.528206880858875
13.856903316429490 2.203100535693778 2.015693050771871
13.891065018226490 2.183343691019778 7.842592360176871
13.925226720023490 2.163586846345778 13.669491669581872
13.959388421820490 2.143830001671778 19.496390978986874
13.805944054600490 8.430919057017778 2.027646824234871
13.840105756397490 8.411162212343779 7.854546133639872
13.874267458194490 8.391405367669778 13.681445443044870
13.908429159991490 8.371648522995777 19.508344752449872
13.754984792771490 14.658737578341778 2.039600597697871
13.789146494568490 14.638980733667777 7.866499907102872
13.823308196365490 14.619223888993778 13.693399216507871
13.857469898162490 14.599467044319779 19.520298525912875
13.704025530942490 20.886556099665775 2.051554371160871
13.738187232739490 20.866799254991776 7.878453680565871
13.772348934536490 20.847042410317776 13.705352989970871
13.806510636333490 20.827285565643777 19.532252299375873
20.083935713884493 2.186707748296778 2.019738469288871
20.118097415681493 2.166950903622778 7.846637778693871
20.152259117478494 2.147194058948778 13.673537088098872
20.186420819275494 2.127437214274778 19.500436397503872
20.032976452055493 8.414526269620778 2.031692242751871
20.067138153852493 8.394769424946777 7.858591552156872
20.101299855649494 8.375012580272777 13.685490861561870
20.135461557446494 8.355255735598778 19.512390170966874
19.982017190226493 14.642344790944778 2.043646016214871
20.016178892023493 14.622587946270778 7.870545325619871
20.050340593820493 14.602831101596777 13.697444635024871
20.084502295617494 14.583074256922778 19.524343944429873
19.931057928397493 20.870163312268780 2.055599789677871
19.965219630194493 20.850406467594780 7.882499099082871
19.999381331991493 20.830649622920781 13.709398408487871
20.033543033788494 20.810892778246775 19.536297717892872
4.553372517605603 3.877932751781067 3.759492827588916
4.587534219402603 3.858175907107067 9.586392136993917
4.621695921199604 3.838419062433067 15.413291446398917
4.655857622996603 3.818662217759067 21.240190755803916
4.502413255776603 10.105751273105067 3.771446601051916
4.536574957573603 10.085994428431068 9.598345910456917
4.570736659370604 10.066237583757067 15.425245219861917
4.604898361167603 10.046480739083067 21.252144529266914
4.451453993947603 16.333569794429067 3.783400374514916
4.485615695744603 16.313812949755068 9.610299683919916
4.519777397541604 16.294056105081069 15.437198993324918
4.553939099338603 16.274299260407069 21.264098302729916
4.400494732118603 22.561388315753067 3.795354147977916
4.434656433915603 22.541631471079068 9.622253457382916
4.468818135712604 22.521874626405069 15.449152766787916
4.502979837509603 22.502117781731066 21.276052076192915
10.780404915060604 3.861539964384067 3.763538246105916
10.814566616857604 3.841783119710067 9.590437555510917
10.848728318654604 3.822026275036067 15.417336864915917
10.882890020451603 3.802269430362067 21.244236174320914
10.729445653231604 10.089358485708068 3.775492019568916
10.763607355028604 10.069601641034067 9.602391328973916
10.797769056825604 10.049844796360066 15.429290638378918
10.831930758622603 10.030087951686067 21.256189947783916
10.678486391402604 16.317177007032065 3.787445793031916
10.712648093199604 16.297420162358065 9.614345102436916
10.746809794996604 16.277663317684066 15.441244411841916
10.780971496793603 16.257906473010067 21.268143721246915
10.627527129573604 22.544995528356068 3.799399566494916
10.661688831370604 22.525238683682065 9.626298875899916
10.695850533167604 22.505481839008066 15.453198185304917
10.730012234964603 22.485724994334067 21.280097494709917
17.007437312515602 3.845147176987067 3.767583664622916
17.041599014312602 3.825390332313067 9.594482974027915
17.075760716109603 3.805633487639067 15.421382283432918
17.109922417906603 3.785876642965067 21.248281592837916
16.956478050686602 10.072965698311068 3.779537438085916
16.990639752483602 10.053208853637067 9.606436747490916
17.024801454280603 10.033452008963067 15.433336056895916
17.058963156077603 10.013695164289068 21.260235366300915
16.905518788857602 16.300784219635069 3.791491211548916
16.939680490654602 16.281027374961067 9.618390520953916
16.973842192451603 16.261270530287067 15.445289830358917
17.008003894248603 16.241513685613068 21.272189139763917
16.854559527028602 22.528602740959066 3.803444985011916
16.888721228825602 22.508845896285067 9.630344294416917
16.922882930622603 22.489089051611067 15.457243603821917
16.957044632419603 22.469332206937068 21.284142913226916
23.234469709970604 3.828754389590067 3.771629083139916
23.268631411767604 3.808997544916067 9.598528392544916
23.302793113564604 3.789240700242067 15.425427701949918
23.336954815361604 3.769483855568067 21.252327011354915
23.183510448141604 10.056572910914067 3.783582856602916
23.217672149938604 10.036816066240068 9.610482166007916
23.251833851735604 10.017059221566068 15.437381475412916
23.285995553532604 9.997302376892067 21.264280784817917
23.132551186312604 16.284391432238067 3.795536630065916
23.166712888109604 16.264634587564068 9.622435939470916
23.200874589906604 16.244877742890068 15.449335248875917
23.235036291703604 16.225120898216069 21.276234558280915
23.081591924483604 22.512209953562067 3.807490403528916
23.115753626280604 22.492453108888068 9.634389712933917
23.149915328077604 22.472696264214068 15.461289022338917
23.184077029874604 22.452939419540066 21.288188331743914
1.436350820898473 0.699055075446015 1.976812495214456
1.470512522695473 0.679298230772015 7.803711804619456
1.504674224492473 0.659541386098015 13.630611114024457
1.538835926289473 0.639784541424015 19.457510423429458
1.385391559069473 6.926873596770015 1.988766268677456
1.419553260866473 6.907116752096015 7.815665578082457
1.453714962663473 6.887359907422015 13.642564887487456
1.487876664460473 6.867603062748016 19.469464196892456
1.334432297240473 13.154692118094015 2.000720042140456
1.368593999037473 13.134935273420016 7.827619351545456
1.402755700834473 13.115178428746015 13.654518660950458
1.436917402631473 13.095421584072016 19.481417970355459
1.283473035411473 19.382510639418015 2.012673815603456
1.317634737208473 19.362753794744016 7.839573125008457
1.351796439005473 19.342996950070017 13.666472434413457
1.385958140802473 19.323240105396014 19.493371743818457
7.663383218353473 0.682662288049015 1.980857913731456
7.697544920150473 0.662905443375015 7.807757223136456
7.731706621947473 0.643148598701015 13.634656532541456
7.765868323744472 0.623391754027015 19.461555841946456
7.612423956524473 6.910480809373015 1.992811687194456
7.646585658321473 6.890723964699015 7.819710996599456
7.680747360118473 6.870967120025015 13.646610306004458
7.714909061915472 6.851210275351015 19.473509615409458
7.561464694695473 13.138299330697015 2.004765460657456
7.595626396492473 13.118542486023015 7.831664770062456
7.629788098289473 13.098785641349016 13.658564079467457
7.663949800086472 13.079028796675015 19.485463388872457
7.510505432866473 19.366117852021016 2.016719234120456
7.544667134663473 19.346361007347014 7.843618543525456
7.578828836460473 19.326604162673014 13.670517852930455
7.612990538257472 19.306847317999015 19.497417162335459
13.890415615808474 0.666269500652015 1.984903332248456
13.924577317605474 0.646512655978015 7.811802641653456
13.958739019402474 0.626755811304015 13.638701951058458
13.992900721199474 0.606998966630015 19.465601260463458
13.839456353979473 6.894088021976016 1.996857105711456
13.873618055776474 6.874331177302015 7.823756415116456
13.907779757573474 6.854574332628015 13.650655724521457
13.941941459370474 6.834817487954015 19.477555033926457
13.788497092150473 13.121906543300016 2.008810879174456
13.822658793947474 13.102149698626015 7.835710188579457
13.856820495744474 13.082392853952015 13.662609497984455
13.890982197541474 13.062636009278016 19.489508807389459
13.737537830321473 19.349725064624014 2.020764652637456
13.771699532118474 19.329968219950015 7.847663962042456
13.805861233915474 19.310211375276015 13.674563271447457
13.840022935712474 19.290454530602016 19.501462580852458
20.117448013263473 0.649876713255015 1.988948750765456
20.151609715060474 0.630119868581015 7.815848060170456
20.185771416857474 0.610363023907015 13.642747369575456
20.219933118654474 0.590606179233015 19.469646678980457
20.066488751434473 6.877695234579015 2.000902524228456
20.100650453231474 6.857938389905015 7.827801833633456
20.134812155028474 6.838181545231016 13.654701143038455
20.168973856825474 6.818424700557015 19.481600452443459
20.015529489605473 13.105513755903015 2.012856297691456
20.049691191402474 13.085756911229016 7.839755607096456
20.083852893199474 13.066000066555015 13.666654916501457
20.118014594996474 13.046243221881015 19.493554225906458
19.964570227776473 19.333332277227015 2.024810071154456
19.998731929573474 19.313575432553016 7.851709380559456
20.032893631370474 19.293818587879016 13.678608689964456
20.067055333167474 19.274061743205014 19.505507999369456
4.520030433781455 5.414792844236075 3.790238270054575
4.554192135578456 5.395035999562075 9.617137579459575
4.588353837375456 5.375279154888075 15.444036888864575
4.622515539172455 5.355522310214075 21.270936198269577
4.469071171952455 11.642611365560075 3.802192043517575
4.503232873749456 11.622854520886076 9.629091352922575
4.537394575546456 11.603097676212075 15.455990662327576
4.571556277343455 11.583340831538075 21.282889971732576
4.418111910123455 17.870429886884075 3.814145816980575
4.452273611920456 17.850673042210076 9.641045126385576
4.486435313717456 17.830916197536077 15.467944435790576
4.520597015514455 17.811159352862077 21.294843745195578
4.367152648294455 24.098248408208075 3.826099590443575
4.401314350091456 24.078491563534076 9.652998899848576
4.435476051888456 24.058734718860077 15.479898209253575
4.469637753685455 24.038977874186074 21.306797518658577
10.747062831236455 5.398400056839075 3.794283688571575
10.781224533033456 5.378643212165075 9.621182997976575
10.815386234830456 5.358886367491075 15.448082307381576
10.849547936627456 5.339129522817075 21.274981616786576
10.696103569407455 11.626218578163076 3.806237462034575
10.730265271204456 11.606461733489075 9.633136771439576
10.764426973001456 11.586704888815074 15.460036080844576
10.798588674798456 11.566948044141075 21.286935390249578
10.645144307578455 17.854037099487073 3.818191235497575
10.679306009375455 17.834280254813073 9.645090544902576
10.713467711172456 17.814523410139074 15.471989854307575
10.747629412969456 17.794766565465075 21.298889163712577
10.594185045749455 24.081855620811076 3.830145008960575
10.628346747546455 24.062098776137073 9.657044318365575
10.662508449343456 24.042341931463074 15.483943627770575
10.696670151140456 24.022585086789075 21.310842937175579
16.974095228691453 5.382007269442076 3.798329107088575
17.008256930488457 5.362250424768075 9.625228416493576
17.042418632285454 5.342493580094075 15.452127725898576
17.076580334082458 5.322736735420075 21.279027035303578
16.923135966862453 11.609825790766076 3.810282880551575
16.957297668659457 11.590068946092074 9.637182189956576
16.991459370456454 11.570312101418075 15.464081499361575
17.025621072253458 11.550555256744076 21.290980808766577
16.872176705033453 17.837644312090077 3.822236654014575
16.906338406830457 17.817887467416075 9.649135963419576
16.940500108627454 17.798130622742075 15.476035272824575
16.974661810424458 17.778373778068076 21.302934582229579
16.821217443204453 24.065462833414074 3.834190427477575
16.855379145001457 24.045705988740075 9.661089736882575
16.889540846798454 24.025949144066075 15.487989046287575
16.923702548595458 24.006192299392076 21.314888355692577
23.201127626146459 5.365614482045075 3.802374525605575
23.235289327943455 5.345857637371075 9.629273835010576
23.269451029740459 5.326100792697075 15.456173144415576
23.303612731537456 5.306343948023075 21.283072453820576
23.150168364317459 11.593433003369075 3.814328299068575
23.184330066114455 11.573676158695076 9.641227608473576
23.218491767911459 11.553919314021076 15.468126917878575
23.252653469708456 11.534162469347075 21.295026227283579
23.099209102488459 17.821251524693075 3.826282072531575
23.133370804285455 17.801494680019076 9.653181381936575
23.167532506082459 17.781737835345076 15.480080691341575
23.201694207879456 17.761980990671077 21.306980000746577
23.048249840659459 24.049070046017075 3.838235845994575
23.082411542456455 24.029313201343076 9.665135155399575
23.116573244253459 24.009556356669076 15.492034464804576
23.150734946050456 23.989799511995074 21.318933774209576
1.446651698405844 4.156029657033588 3.616444909370394
1.480813400202844 4.136272812359588 9.443344218775394
1.514975101999844 4.116515967685587 15.270243528180394
1.549136803796844 4.096759123011588 21.097142837585395
1.395692436576844 10.383848178357589 3.628398682833394
1.429854138373844 10.364091333683588 9.455297992238394
1.464015840170844 10.344334489009587 15.282197301643395
1.498177541967844 10.324577644335587 21.109096611048393
1.344733174747844 16.611666699681589 3.640352456296394
1.378894876544844 16.591909855007589 9.467251765701395
1.413056578341844 16.572153010333587 15.294151075106395
1.447218280138844 16.552396165659587 21.121050384511395
1.293773912918844 22.839485221005589 3.652306229759394
1.327935614715844 22.819728376331589 9.479205539164395
1.362097316512844 22.799971531657590 15.306104848569394
1.396259018309844 22.780214686983587 21.133004157974394
7.673684095860844 4.139636869636588 3.620490327887394
7.707845797657844 4.119880024962588 9.447389637292394
7.742007499454845 4.100123180288588 15.274288946697395
7.776169201251843 4.080366335614587 21.101188256102393
7.622724834031844 10.367455390960588 3.632444101350394