&GLOBAL
  PRINT_LEVEL LOW
  PROJECT benzene_GFN2_k333_energy
  RUN_TYPE ENERGY
&END GLOBAL

&FORCE_EVAL
  METHOD Quickstep
  STRESS_TENSOR ANALYTICAL
  &DFT
    &QS
      EPS_DEFAULT 1.0E-12
      METHOD xTB
      &XTB
        GFN_TYPE TBLITE
        &TBLITE
          METHOD GFN2
          ACCURACY 0.1
        &END TBLITE
      &END XTB
    &END QS
    &KPOINTS
      SCHEME MACDONALD 3 3 3 0.0 0.0 0.0
      FULL_GRID T
    &END KPOINTS
    &SCF
      EPS_SCF 1.0E-9
      MAX_SCF 300
      SCF_GUESS MOPAC
      &MIXING
        METHOD DIRECT_P_MIXING
        ALPHA 0.2
      &END MIXING
    &END SCF
  &END DFT
  &SUBSYS
    &CELL
      PERIODIC XYZ
      A 7.390000000000 0.000000000000 0.000000000000
      B 0.000000000000 9.420000000000 0.000000000000
      C 0.000000000000 0.000000000000 6.810000000000
    &END CELL
    &COORD
      SCALED
      C   0.939300000000  0.139300000000  0.993100000000
      C   0.060700000000  0.860700000000  0.006900000000
      C   0.439300000000  0.139300000000  0.506900000000
      C   0.939300000000  0.360700000000  0.493100000000
      C   0.439300000000  0.360700000000  0.006900000000
      C   0.560700000000  0.639300000000  0.993100000000
      C   0.060700000000  0.639300000000  0.506900000000
      C   0.560700000000  0.860700000000  0.493100000000
      C   0.862300000000  0.044700000000  0.126000000000
      C   0.137700000000  0.955300000000  0.874000000000
      C   0.362300000000  0.044700000000  0.374000000000
      C   0.862300000000  0.455300000000  0.626000000000
      C   0.362300000000  0.455300000000  0.874000000000
      C   0.637700000000  0.544700000000  0.126000000000
      C   0.137700000000  0.544700000000  0.374000000000
      C   0.637700000000  0.955300000000  0.626000000000
      C   0.077000000000  0.095800000000  0.867500000000
      C   0.923000000000  0.904200000000  0.132500000000
      C   0.577000000000  0.095800000000  0.632500000000
      C   0.077000000000  0.404200000000  0.367500000000
      C   0.577000000000  0.404200000000  0.132500000000
      C   0.423000000000  0.595800000000  0.867500000000
      C   0.923000000000  0.595800000000  0.632500000000
      C   0.423000000000  0.904200000000  0.367500000000
      H   0.895400000000  0.250200000000  0.987700000000
      H   0.104600000000  0.749800000000  0.012300000000
      H   0.395400000000  0.250200000000  0.512300000000
      H   0.895400000000  0.249800000000  0.487700000000
      H   0.395400000000  0.249800000000  0.012300000000
      H   0.604600000000  0.750200000000  0.987700000000
      H   0.104600000000  0.750200000000  0.512300000000
      H   0.604600000000  0.749800000000  0.487700000000
      H   0.754200000000  0.078100000000  0.224100000000
      H   0.245800000000  0.921900000000  0.775900000000
      H   0.254200000000  0.078100000000  0.275900000000
      H   0.754200000000  0.421900000000  0.724100000000
      H   0.254200000000  0.421900000000  0.775900000000
      H   0.745800000000  0.578100000000  0.224100000000
      H   0.245800000000  0.578100000000  0.275900000000
      H   0.745800000000  0.921900000000  0.724100000000
      H   0.137100000000  0.168100000000  0.764000000000
      H   0.862900000000  0.831900000000  0.236000000000
      H   0.637100000000  0.168100000000  0.736000000000
      H   0.137100000000  0.331900000000  0.264000000000
      H   0.637100000000  0.331900000000  0.236000000000
      H   0.362900000000  0.668100000000  0.764000000000
      H   0.862900000000  0.668100000000  0.736000000000
      H   0.362900000000  0.831900000000  0.264000000000
    &END COORD
  &END SUBSYS
&END FORCE_EVAL
