&GLOBAL
  PRINT_LEVEL LOW
  PROJECT succinic_acid_GFN1_gamma_cell_opt
  RUN_TYPE CELL_OPT
&END GLOBAL

&FORCE_EVAL
  METHOD Quickstep
  STRESS_TENSOR ANALYTICAL
  &DFT
    &QS
      EPS_DEFAULT 1.0E-12
      METHOD xTB
      &XTB
        GFN_TYPE TBLITE
        &TBLITE
          METHOD GFN1
          ACCURACY 0.1
        &END TBLITE
      &END XTB
    &END QS
    &SCF
      EPS_SCF 1.0E-9
      MAX_SCF 300
      SCF_GUESS MOPAC
      &MIXING
        METHOD DIRECT_P_MIXING
        ALPHA 0.2
      &END MIXING
    &END SCF
  &END DFT
  &SUBSYS
    &CELL
      PERIODIC XYZ
      A 5.464000000000 0.000000000000 0.000000000000
      B 0.000000000000 8.766000000000 0.000000000000
      C -0.287178471961 0.000000000000 4.995752648525
    &END CELL
    &COORD
      SCALED
      C   0.082800000000  0.932500000000  0.974400000000
      C   0.917200000000  0.067500000000  0.025600000000
      C   0.082800000000  0.567500000000  0.474400000000
      C   0.917200000000  0.432500000000  0.525600000000
      C   0.261400000000  0.965600000000  0.764500000000
      C   0.738600000000  0.034400000000  0.235500000000
      C   0.261400000000  0.534400000000  0.264500000000
      C   0.738600000000  0.465600000000  0.735500000000
      O   0.249900000000  0.078000000000  0.618500000000
      O   0.750100000000  0.922000000000  0.381500000000
      O   0.249900000000  0.422000000000  0.118500000000
      O   0.750100000000  0.578000000000  0.881500000000
      O   0.431800000000  0.859300000000  0.752500000000
      O   0.568200000000  0.140700000000  0.247500000000
      O   0.431800000000  0.640700000000  0.252500000000
      O   0.568200000000  0.359300000000  0.747500000000
      H   0.975000000000  0.832200000000  0.905300000000
      H   0.025000000000  0.167800000000  0.094700000000
      H   0.975000000000  0.667800000000  0.405300000000
      H   0.025000000000  0.332200000000  0.594700000000
      H   0.187600000000  0.896000000000  0.156500000000
      H   0.812400000000  0.104000000000  0.843500000000
      H   0.187600000000  0.604000000000  0.656500000000
      H   0.812400000000  0.396000000000  0.343500000000
      H   0.543600000000  0.880700000000  0.604200000000
      H   0.456400000000  0.119300000000  0.395800000000
      H   0.543600000000  0.619300000000  0.104200000000
      H   0.456400000000  0.380700000000  0.895800000000
    &END COORD
  &END SUBSYS
&END FORCE_EVAL

&MOTION
  &CELL_OPT
    OPTIMIZER BFGS
    MAX_ITER 200
    EXTERNAL_PRESSURE 0.0
  &END CELL_OPT
&END MOTION
