DMC-ICE13 ice XIII; Cartesian 2x2x2 supercell
1.0
17.444794000000002 0.000000000000000 -6.241778000000000
0.000000000000000 14.980727999999999 0.000000000000000
0.000000000000000 0.000000000000000 20.643505999999999
H O
448 224
Cartesian
2.995157738639000 4.823097812148000 2.019743921222000
2.995157738639000 4.823097812148000 12.341496921221999
2.995157738639000 12.313461812147999 2.019743921222000
2.995157738639000 12.313461812147999 12.341496921221999
11.717554738639002 4.823097812148000 -1.101145078778000
11.717554738639002 4.823097812148000 9.220607921221999
11.717554738639002 12.313461812147999 -1.101145078778000
11.717554738639002 12.313461812147999 9.220607921221999
2.160563904091000 3.689296394196000 2.677807790770000
2.160563904091000 3.689296394196000 12.999560790769999
2.160563904091000 11.179660394195999 2.677807790770000
2.160563904091000 11.179660394195999 12.999560790769999
10.882960904091000 3.689296394196000 -0.443081209230000
10.882960904091000 3.689296394196000 9.878671790769999
10.882960904091000 11.179660394195999 -0.443081209230000
10.882960904091000 11.179660394195999 9.878671790769999
1.053848727937000 5.362411510512000 1.281120689581000
1.053848727937000 5.362411510512000 11.602873689580999
1.053848727937000 12.852775510512000 1.281120689581000
1.053848727937000 12.852775510512000 11.602873689580999
9.776245727937001 5.362411510512000 -1.839768310419000
9.776245727937001 5.362411510512000 8.481984689580999
9.776245727937001 12.852775510512000 -1.839768310419000
9.776245727937001 12.852775510512000 8.481984689580999
4.106216668499000 6.823047471240000 2.142473040366999
4.106216668499000 6.823047471240000 12.464226040366999
4.106216668499000 14.313411471239998 2.142473040366999
4.106216668499000 14.313411471239998 12.464226040366999
12.828613668499001 6.823047471240000 -0.978415959633001
12.828613668499001 6.823047471240000 9.343337040366999
12.828613668499001 14.313411471239998 -0.978415959633001
12.828613668499001 14.313411471239998 9.343337040366999
4.961997205360001 5.615818014996000 2.780589796374000
4.961997205360001 5.615818014996000 13.102342796374000
4.961997205360001 13.106182014996000 2.780589796374000
4.961997205360001 13.106182014996000 13.102342796374000
13.684394205360002 5.615818014996000 -0.340299203626000
13.684394205360002 5.615818014996000 9.981453796373998
13.684394205360002 13.106182014996000 -0.340299203626000
13.684394205360002 13.106182014996000 9.981453796373998
-0.345799429065000 5.638925787936000 0.641962219029000
-0.345799429065000 5.638925787936000 10.963715219029000
-0.345799429065000 13.129289787935999 0.641962219029000
-0.345799429065000 13.129289787935999 10.963715219029000
8.376597570935001 5.638925787936000 -2.478926780971000
8.376597570935001 5.638925787936000 7.842826219028999
8.376597570935001 13.129289787935999 -2.478926780971000
8.376597570935001 13.129289787935999 7.842826219028999
2.021284668795000 3.379412545152000 0.258462071909000
2.021284668795000 3.379412545152000 10.580215071908999
2.021284668795000 10.869776545152000 0.258462071909000
2.021284668795000 10.869776545152000 10.580215071908999
10.743681668795002 3.379412545152000 -2.862426928091000
10.743681668795002 3.379412545152000 7.459326071909000
10.743681668795002 10.869776545152000 -2.862426928091000
10.743681668795002 10.869776545152000 7.459326071909000
2.730947611112000 3.671454347148000 4.993036325127000
2.730947611112000 3.671454347148000 15.314789325126998
2.730947611112000 11.161818347147999 4.993036325127000
2.730947611112000 11.161818347147999 15.314789325126998
11.453344611112001 3.671454347148000 1.872147325127000
11.453344611112001 3.671454347148000 12.193900325127000
11.453344611112001 11.161818347147999 1.872147325127000
11.453344611112001 11.161818347147999 12.193900325127000
1.554584094913000 2.675565511164000 4.778007737807000
1.554584094913000 2.675565511164000 15.099760737806999
1.554584094913000 10.165929511163998 4.778007737807000
1.554584094913000 10.165929511163998 15.099760737806999
10.276981094913001 2.675565511164000 1.657118737807000
10.276981094913001 2.675565511164000 11.978871737806999
10.276981094913001 10.165929511163998 1.657118737807000
10.276981094913001 10.165929511163998 11.978871737806999
2.594040867800000 2.729061690852000 -1.079087382719000
2.594040867800000 2.729061690852000 9.242665617280998
2.594040867800000 10.219425690851999 -1.079087382719000
2.594040867800000 10.219425690851999 9.242665617280998
11.316437867800001 2.729061690852000 -4.199976382719000
11.316437867800001 2.729061690852000 6.121776617280999
11.316437867800001 10.219425690851999 -4.199976382719000
11.316437867800001 10.219425690851999 6.121776617280999
0.695427990413000 0.106385639892000 1.793457333005000
0.695427990413000 0.106385639892000 12.115210333004999
0.695427990413000 7.596749639892000 1.793457333005000
0.695427990413000 7.596749639892000 12.115210333004999
9.417824990413001 0.106385639892000 -1.327431666995000
9.417824990413001 0.106385639892000 8.994321333004999
9.417824990413001 7.596749639892000 -1.327431666995000
9.417824990413001 7.596749639892000 8.994321333004999
2.777978775736000 1.034816257692000 1.578535126111000
2.777978775736000 1.034816257692000 11.900288126110999
2.777978775736000 8.525180257692000 1.578535126111000
2.777978775736000 8.525180257692000 11.900288126110999
11.500375775736002 1.034816257692000 -1.542353873889000
11.500375775736002 1.034816257692000 8.779399126110999
11.500375775736002 8.525180257692000 -1.542353873889000
11.500375775736002 8.525180257692000 8.779399126110999
3.324611395726000 0.366518491248000 0.290783684045000
3.324611395726000 0.366518491248000 10.612536684044999
3.324611395726000 7.856882491247999 0.290783684045000
3.324611395726000 7.856882491247999 10.612536684044999
12.047008395726001 0.366518491248000 -2.830105315955000
12.047008395726001 0.366518491248000 7.491647684044999
12.047008395726001 7.856882491247999 -2.830105315955000
12.047008395726001 7.856882491247999 7.491647684044999
0.402442675183000 1.538580688512000 2.444329371721000
0.402442675183000 1.538580688512000 12.766082371721000
0.402442675183000 9.028944688511999 2.444329371721000
0.402442675183000 9.028944688511999 12.766082371721000
9.124839675183001 1.538580688512000 -0.676559628279000
9.124839675183001 1.538580688512000 9.645193371721000
9.124839675183001 9.028944688511999 -0.676559628279000
9.124839675183001 9.028944688511999 9.645193371721000
1.366040761361000 1.077915812148000 6.741564578777999
1.366040761361000 1.077915812148000 17.063317578777998
1.366040761361000 8.568279812147999 6.741564578777999
1.366040761361000 8.568279812147999 17.063317578777998
10.088437761361002 1.077915812148000 3.620675578777999
10.088437761361002 1.077915812148000 13.942428578777999
10.088437761361002 8.568279812147999 3.620675578777999
10.088437761361002 8.568279812147999 13.942428578777999
2.200634595909000 -0.055885605804000 6.083500709229999
2.200634595909000 -0.055885605804000 16.405253709229999
2.200634595909000 7.434478394196000 6.083500709229999
2.200634595909000 7.434478394196000 16.405253709229999
10.923031595909002 -0.055885605804000 2.962611709229999
10.923031595909002 -0.055885605804000 13.284364709229997
10.923031595909002 7.434478394196000 2.962611709229999
10.923031595909002 7.434478394196000 13.284364709229997
3.307349772063000 1.617229510512000 7.480187810419000
3.307349772063000 1.617229510512000 17.801940810418998
3.307349772063000 9.107593510512000 7.480187810419000
3.307349772063000 9.107593510512000 17.801940810418998
12.029746772063001 1.617229510512000 4.359298810419000
12.029746772063001 1.617229510512000 14.681051810419000
12.029746772063001 9.107593510512000 4.359298810419000
12.029746772063001 9.107593510512000 14.681051810419000
0.254981831501000 3.077865471240000 6.618835459632999
0.254981831501000 3.077865471240000 16.940588459632998
0.254981831501000 10.568229471239999 6.618835459632999
0.254981831501000 10.568229471239999 16.940588459632998
8.977378831501001 3.077865471240000 3.497946459632999
8.977378831501001 3.077865471240000 13.819699459632998
8.977378831501001 10.568229471239999 3.497946459632999
8.977378831501001 10.568229471239999 13.819699459632998
-0.600798705360000 1.870636014996000 5.980718703626001
-0.600798705360000 1.870636014996000 16.302471703626001
-0.600798705360000 9.361000014996000 5.980718703626001
-0.600798705360000 9.361000014996000 16.302471703626001
8.121598294640000 1.870636014996000 2.859829703626001
8.121598294640000 1.870636014996000 13.181582703625999
8.121598294640000 9.361000014996000 2.859829703626001
8.121598294640000 9.361000014996000 13.181582703625999
4.706997929065001 1.893743787936000 8.119346280971000
4.706997929065001 1.893743787936000 18.441099280970999
4.706997929065001 9.384107787935999 8.119346280971000
4.706997929065001 9.384107787935999 18.441099280970999
13.429394929065001 1.893743787936000 4.998457280971000
13.429394929065001 1.893743787936000 15.320210280970999
13.429394929065001 9.384107787935999 4.998457280971000
13.429394929065001 9.384107787935999 15.320210280970999
2.339913831205000 7.124594545152000 8.502846428091001
2.339913831205000 7.124594545152000 18.824599428090998
2.339913831205000 14.614958545152000 8.502846428091001
2.339913831205000 14.614958545152000 18.824599428090998
11.062310831205000 7.124594545152000 5.381957428091001
11.062310831205000 7.124594545152000 15.703710428091000
11.062310831205000 14.614958545152000 5.381957428091001
11.062310831205000 14.614958545152000 15.703710428091000
1.630250888888000 7.416636347147999 3.768272174873000
1.630250888888000 7.416636347147999 14.090025174872999
1.630250888888000 14.907000347147999 3.768272174873000
1.630250888888000 14.907000347147999 14.090025174872999
10.352647888888001 7.416636347147999 0.647383174873000
10.352647888888001 7.416636347147999 10.969136174872999
10.352647888888001 14.907000347147999 0.647383174873000
10.352647888888001 14.907000347147999 10.969136174872999
2.806614405087000 6.420747511164000 3.983300762193000
2.806614405087000 6.420747511164000 14.305053762192999
2.806614405087000 13.911111511163998 3.983300762193000
2.806614405087000 13.911111511163998 14.305053762192999
11.529011405087001 6.420747511164000 0.862411762193000
11.529011405087001 6.420747511164000 11.184164762192999
11.529011405087001 13.911111511163998 0.862411762193000
11.529011405087001 13.911111511163998 11.184164762192999
1.767157632200000 6.474243690851999 9.840395882718999
1.767157632200000 6.474243690851999 20.162148882718999
1.767157632200000 13.964607690851999 9.840395882718999
1.767157632200000 13.964607690851999 20.162148882718999
10.489554632200001 6.474243690851999 6.719506882718999
10.489554632200001 6.474243690851999 17.041259882718997
10.489554632200001 13.964607690851999 6.719506882718999
10.489554632200001 13.964607690851999 17.041259882718997
3.665770509587000 3.851567639892000 6.967851166995000
3.665770509587000 3.851567639892000 17.289604166994998
3.665770509587000 11.341931639892000 6.967851166995000
3.665770509587000 11.341931639892000 17.289604166994998
12.388167509587001 3.851567639892000 3.846962166995000
12.388167509587001 3.851567639892000 14.168715166995000
12.388167509587001 11.341931639892000 3.846962166995000
12.388167509587001 11.341931639892000 14.168715166995000
1.583219724264000 4.779998257691999 7.182773373889000
1.583219724264000 4.779998257691999 17.504526373889000
1.583219724264000 12.270362257692000 7.182773373889000
1.583219724264000 12.270362257692000 17.504526373889000
10.305616724264000 4.779998257691999 4.061884373889000
10.305616724264000 4.779998257691999 14.383637373888998
10.305616724264000 12.270362257692000 4.061884373889000
10.305616724264000 12.270362257692000 14.383637373888998
1.036587104274000 4.111700491248000 8.470524815955001
1.036587104274000 4.111700491248000 18.792277815955000
1.036587104274000 11.602064491247999 8.470524815955001
1.036587104274000 11.602064491247999 18.792277815955000
9.758984104274001 4.111700491248000 5.349635815955001
9.758984104274001 4.111700491248000 15.671388815955000
9.758984104274001 11.602064491247999 5.349635815955001
9.758984104274001 11.602064491247999 15.671388815955000
3.958755824817001 5.283762688512000 6.316979128279000
3.958755824817001 5.283762688512000 16.638732128278999
3.958755824817001 12.774126688511998 6.316979128279000
3.958755824817001 12.774126688511998 16.638732128278999
12.681152824817001 5.283762688512000 3.196090128279000
12.681152824817001 5.283762688512000 13.517843128278999
12.681152824817001 12.774126688511998 3.196090128279000
12.681152824817001 12.774126688511998 13.517843128278999
5.727239261361000 2.667266187852000 5.181120078777999
5.727239261361000 2.667266187852000 15.502873078777998
5.727239261361000 10.157630187852000 5.181120078777999
5.727239261361000 10.157630187852000 15.502873078777998
14.449636261361000 2.667266187852000 2.060231078777999
14.449636261361000 2.667266187852000 12.381984078777998
14.449636261361000 10.157630187852000 2.060231078777999
14.449636261361000 10.157630187852000 12.381984078777998
6.561833095909001 3.801067605804000 4.523056209229999
6.561833095909001 3.801067605804000 14.844809209229998
6.561833095909001 11.291431605804000 4.523056209229999
6.561833095909001 11.291431605804000 14.844809209229998
15.284230095909003 3.801067605804000 1.402167209229999
15.284230095909003 3.801067605804000 11.723920209229998
15.284230095909003 11.291431605804000 1.402167209229999
15.284230095909003 11.291431605804000 11.723920209229998
7.668548272063001 2.127952489488000 5.919743310419000
7.668548272063001 2.127952489488000 16.241496310418999
7.668548272063001 9.618316489487999 5.919743310419000
7.668548272063001 9.618316489487999 16.241496310418999
16.390945272063000 2.127952489488000 2.798854310419000
16.390945272063000 2.127952489488000 13.120607310419000
16.390945272063000 9.618316489487999 2.798854310419000
16.390945272063000 9.618316489487999 13.120607310419000
4.616180331501000 0.667316528760000 5.058390959632999
4.616180331501000 0.667316528760000 15.380143959632999
4.616180331501000 8.157680528760000 5.058390959632999
4.616180331501000 8.157680528760000 15.380143959632999
13.338577331501000 0.667316528760000 1.937501959632999
13.338577331501000 0.667316528760000 12.259254959632997
13.338577331501000 8.157680528760000 1.937501959632999
13.338577331501000 8.157680528760000 12.259254959632997
3.760399794640001 1.874545985004000 4.420274203626001
3.760399794640001 1.874545985004000 14.742027203626000
3.760399794640001 9.364909985003999 4.420274203626001
3.760399794640001 9.364909985003999 14.742027203626000
12.482796794640002 1.874545985004000 1.299385203626001
12.482796794640002 1.874545985004000 11.621138203626000
12.482796794640002 9.364909985003999 1.299385203626001
12.482796794640002 9.364909985003999 11.621138203626000
9.068196429065001 1.851438212064000 6.558901780971000
9.068196429065001 1.851438212064000 16.880654780971000
9.068196429065001 9.341802212064000 6.558901780971000
9.068196429065001 9.341802212064000 16.880654780971000
17.790593429065002 1.851438212064000 3.438012780971000
17.790593429065002 1.851438212064000 13.759765780971000
17.790593429065002 9.341802212064000 3.438012780971000
17.790593429065002 9.341802212064000 13.759765780971000
6.701112331205000 4.110951454847999 6.942401928091000
6.701112331205000 4.110951454847999 17.264154928090999
6.701112331205000 11.601315454847999 6.942401928091000
6.701112331205000 11.601315454847999 17.264154928090999
15.423509331205000 4.110951454847999 3.821512928091000
15.423509331205000 4.110951454847999 14.143265928090999
15.423509331205000 11.601315454847999 3.821512928091000
15.423509331205000 11.601315454847999 14.143265928090999
5.991449388888000 3.818909652852000 2.207827674873000
5.991449388888000 3.818909652852000 12.529580674872999
5.991449388888000 11.309273652851999 2.207827674873000
5.991449388888000 11.309273652851999 12.529580674872999
14.713846388888001 3.818909652852000 -0.913061325127000
14.713846388888001 3.818909652852000 9.408691674872999
14.713846388888001 11.309273652851999 -0.913061325127000
14.713846388888001 11.309273652851999 9.408691674872999
7.167821627484000 4.814798488836000 2.422853141304000
7.167821627484000 4.814798488836000 12.744606141304001
7.167821627484000 12.305162488836000 2.422853141304000
7.167821627484000 12.305162488836000 12.744606141304001
15.890218627484000 4.814798488836000 -0.698035858696000
15.890218627484000 4.814798488836000 9.623717141303999
15.890218627484000 12.305162488836000 -0.698035858696000
15.890218627484000 12.305162488836000 9.623717141303999
6.128356132200000 4.761302309148000 8.279951382718998
6.128356132200000 4.761302309148000 18.601704382718999
6.128356132200000 12.251666309148000 8.279951382718998
6.128356132200000 12.251666309148000 18.601704382718999
14.850753132200001 4.761302309148000 5.159062382718998
14.850753132200001 4.761302309148000 15.480815382718998
14.850753132200001 12.251666309148000 5.159062382718998
14.850753132200001 12.251666309148000 15.480815382718998
8.026969009587001 7.383978360108000 5.407406666995000
8.026969009587001 7.383978360108000 15.729159666994999
8.026969009587001 14.874342360107999 5.407406666995000
8.026969009587001 14.874342360107999 15.729159666994999
16.749366009587000 7.383978360108000 2.286517666995000
16.749366009587000 7.383978360108000 12.608270666994999
16.749366009587000 14.874342360107999 2.286517666995000
16.749366009587000 14.874342360107999 12.608270666994999
5.944418224264001 6.455555232671999 5.622328873889000
5.944418224264001 6.455555232671999 15.944081873888999
5.944418224264001 13.945919232671999 5.622328873889000
5.944418224264001 13.945919232671999 15.944081873888999
14.666815224264003 6.455555232671999 2.501439873889000
14.666815224264003 6.455555232671999 12.823192873888999
14.666815224264003 13.945919232671999 2.501439873889000
14.666815224264003 13.945919232671999 12.823192873888999
5.397785604274000 7.123845508752000 6.910080315955000
5.397785604274000 7.123845508752000 17.231833315955001
5.397785604274000 14.614209508751999 6.910080315955000
5.397785604274000 14.614209508751999 17.231833315955001
14.120182604274001 7.123845508752000 3.789191315955000
14.120182604274001 7.123845508752000 14.110944315954999
14.120182604274001 14.614209508751999 3.789191315955000
14.120182604274001 14.614209508751999 14.110944315954999
8.319954324817001 5.951783311488000 4.756534628279000
8.319954324817001 5.951783311488000 15.078287628279000
8.319954324817001 13.442147311488000 4.756534628279000
8.319954324817001 13.442147311488000 15.078287628279000
17.042351324817002 5.951783311488000 1.635645628279000
17.042351324817002 5.951783311488000 11.957398628278998
17.042351324817002 13.442147311488000 1.635645628279000
17.042351324817002 13.442147311488000 11.957398628278998
7.356356238639001 6.412448187851999 0.459299421222000
7.356356238639001 6.412448187851999 10.781052421222000
7.356356238639001 13.902812187852000 0.459299421222000
7.356356238639001 13.902812187852000 10.781052421222000
16.078753238639003 6.412448187851999 -2.661589578778000
16.078753238639003 6.412448187851999 7.660163421221999
16.078753238639003 13.902812187852000 -2.661589578778000
16.078753238639003 13.902812187852000 7.660163421221999
6.521762404091000 7.546249605803999 1.117363290770000
6.521762404091000 7.546249605803999 11.439116290769999
6.521762404091000 15.036613605804000 1.117363290770000
6.521762404091000 15.036613605804000 11.439116290769999
15.244159404091000 7.546249605803999 -2.003525709230000
15.244159404091000 7.546249605803999 8.318227290769999
15.244159404091000 15.036613605804000 -2.003525709230000
15.244159404091000 15.036613605804000 8.318227290769999
5.415047227937000 5.873134489488000 -0.279323810419000
5.415047227937000 5.873134489488000 10.042429189581000
5.415047227937000 13.363498489487998 -0.279323810419000
5.415047227937000 13.363498489487998 10.042429189581000
14.137444227937001 5.873134489488000 -3.400212810419000
14.137444227937001 5.873134489488000 6.921540189580999
14.137444227937001 13.363498489487998 -3.400212810419000
14.137444227937001 13.363498489487998 6.921540189580999
8.467415168499000 4.412498528760000 0.582028540366999
8.467415168499000 4.412498528760000 10.903781540367000
8.467415168499000 11.902862528760000 0.582028540366999
8.467415168499000 11.902862528760000 10.903781540367000
17.189812168499003 4.412498528760000 -2.538860459633001
17.189812168499003 4.412498528760000 7.782892540366999
17.189812168499003 11.902862528760000 -2.538860459633001
17.189812168499003 11.902862528760000 7.782892540366999
9.323195705360002 5.619727985003999 1.220145296374000
9.323195705360002 5.619727985003999 11.541898296373999
9.323195705360002 13.110091985003999 1.220145296374000
9.323195705360002 13.110091985003999 11.541898296373999
18.045592705360001 5.619727985003999 -1.900743703626000
18.045592705360001 5.619727985003999 8.421009296373999
18.045592705360001 13.110091985003999 -1.900743703626000
18.045592705360001 13.110091985003999 8.421009296373999
4.015399070935000 5.596620212063999 -0.918492602724000
4.015399070935000 5.596620212063999 9.403260397276000
4.015399070935000 13.086984212063999 -0.918492602724000
4.015399070935000 13.086984212063999 9.403260397276000
12.737796070935001 5.596620212063999 -4.039381602724000
12.737796070935001 5.596620212063999 6.282371397275999
12.737796070935001 13.086984212063999 -4.039381602724000
12.737796070935001 13.086984212063999 6.282371397275999
6.382483168795001 0.365769454848000 -1.301982428091000
6.382483168795001 0.365769454848000 9.019770571909000
6.382483168795001 7.856133454848000 -1.301982428091000
6.382483168795001 7.856133454848000 9.019770571909000
15.104880168795003 0.365769454848000 -4.422871428091000
15.104880168795003 0.365769454848000 5.898881571909000
15.104880168795003 7.856133454848000 -4.422871428091000
15.104880168795003 7.856133454848000 5.898881571909000
7.092146111112001 0.073727652852000 3.432591825127000
7.092146111112001 0.073727652852000 13.754344825126999
7.092146111112001 7.564091652851999 3.432591825127000
7.092146111112001 7.564091652851999 13.754344825126999
15.814543111112002 0.073727652852000 0.311702825127000
15.814543111112002 0.073727652852000 10.633455825126999
15.814543111112002 7.564091652851999 0.311702825127000
15.814543111112002 7.564091652851999 10.633455825126999
5.915773872516001 1.069616488836000 3.217566358696000
5.915773872516001 1.069616488836000 13.539319358695998
5.915773872516001 8.559980488836000 3.217566358696000
5.915773872516001 8.559980488836000 13.539319358695998
14.638170872516003 1.069616488836000 0.096677358696000
14.638170872516003 1.069616488836000 10.418430358696000
14.638170872516003 8.559980488836000 0.096677358696000
14.638170872516003 8.559980488836000 10.418430358696000
6.955239367800001 1.016120309148000 -2.639531882719000
6.955239367800001 1.016120309148000 7.682221117280999
6.955239367800001 8.506484309148000 -2.639531882719000
6.955239367800001 8.506484309148000 7.682221117280999
15.677636367800002 1.016120309148000 -5.760420882719000
15.677636367800002 1.016120309148000 4.561332117280999
15.677636367800002 8.506484309148000 -5.760420882719000
15.677636367800002 8.506484309148000 4.561332117280999
5.056626490413000 3.638796360108000 0.233012833005000
5.056626490413000 3.638796360108000 10.554765833005000
5.056626490413000 11.129160360107999 0.233012833005000
5.056626490413000 11.129160360107999 10.554765833005000
13.779023490413001 3.638796360108000 -2.887876166995000
13.779023490413001 3.638796360108000 7.433876833004999
13.779023490413001 11.129160360107999 -2.887876166995000
13.779023490413001 11.129160360107999 7.433876833004999
7.139177275736000 2.710373232672000 0.018090626111000
7.139177275736000 2.710373232672000 10.339843626111000
7.139177275736000 10.200737232671999 0.018090626111000
7.139177275736000 10.200737232671999 10.339843626111000
15.861574275736000 2.710373232672000 -3.102798373889000
15.861574275736000 2.710373232672000 7.218954626111000
15.861574275736000 10.200737232671999 -3.102798373889000
15.861574275736000 10.200737232671999 7.218954626111000
7.685809895726001 3.378663508752000 -1.269660815955000
7.685809895726001 3.378663508752000 9.052092184045000
7.685809895726001 10.869027508752000 -1.269660815955000
7.685809895726001 10.869027508752000 9.052092184045000
16.408206895726003 3.378663508752000 -4.390549815955000
16.408206895726003 3.378663508752000 5.931203184045000
16.408206895726003 10.869027508752000 -4.390549815955000
16.408206895726003 10.869027508752000 5.931203184045000
4.763641175183001 2.206601311488000 0.883884871721000
4.763641175183001 2.206601311488000 11.205637871720999
4.763641175183001 9.696965311488000 0.883884871721000
4.763641175183001 9.696965311488000 11.205637871720999
13.486038175183001 2.206601311488000 -2.237004128279001
13.486038175183001 2.206601311488000 8.084748871720999
13.486038175183001 9.696965311488000 -2.237004128279001
13.486038175183001 9.696965311488000 8.084748871720999
2.248729892967000 4.190154563784000 1.826023099106999
2.248729892967000 4.190154563784000 12.147776099106999
2.248729892967000 11.680518563783998 1.826023099106999
2.248729892967000 11.680518563783998 12.147776099106999
10.971126892967002 4.190154563784000 -1.294865900893001
10.971126892967002 4.190154563784000 9.026887099106998
10.971126892967002 11.680518563783998 -1.294865900893001
10.971126892967002 11.680518563783998 9.026887099106998
4.052678595713001 6.007391773824000 2.701260625642000
4.052678595713001 6.007391773824000 13.023013625641999
4.052678595713001 13.497755773824000 2.701260625642000
4.052678595713001 13.497755773824000 13.023013625641999
12.775075595713002 6.007391773824000 -0.419628374358000
12.775075595713002 6.007391773824000 9.902124625641999
12.775075595713002 13.497755773824000 -0.419628374358000
12.775075595713002 13.497755773824000 9.902124625641999
0.531281201270000 6.066430822871999 0.810683178384000
0.531281201270000 6.066430822871999 11.132436178383999
0.531281201270000 13.556794822872000 0.810683178384000
0.531281201270000 13.556794822872000 11.132436178383999
9.253678201270001 6.066430822871999 -2.310205821616000
9.253678201270001 6.066430822871999 8.011547178383999
9.253678201270001 13.556794822872000 -2.310205821616000
9.253678201270001 13.556794822872000 8.011547178383999
2.377437583099000 3.006639599964000 4.339869222552999
2.377437583099000 3.006639599964000 14.661622222553000
2.377437583099000 10.497003599964000 4.339869222552999
2.377437583099000 10.497003599964000 14.661622222553000
11.099834583099002 3.006639599964000 1.218980222552999
11.099834583099002 3.006639599964000 11.540733222552998
11.099834583099002 10.497003599964000 1.218980222552999
11.099834583099002 10.497003599964000 11.540733222552998
1.760301828158000 3.009830495028000 -0.624451137580000
1.760301828158000 3.009830495028000 9.697301862420000
1.760301828158000 10.500194495028000 -0.624451137580000
1.760301828158000 10.500194495028000 9.697301862420000
10.482698828158000 3.009830495028000 -3.745340137580000
10.482698828158000 3.009830495028000 6.576412862419999
10.482698828158000 10.500194495028000 -3.745340137580000
10.482698828158000 10.500194495028000 6.576412862419999
3.629110274996000 0.805551196380000 1.129060721865000
3.629110274996000 0.805551196380000 11.450813721865000
3.629110274996000 8.295915196379999 1.129060721865000
3.629110274996000 8.295915196379999 11.450813721865000
12.351507274996001 0.805551196380000 -1.991828278135000
12.351507274996001 0.805551196380000 8.329924721865000
12.351507274996001 8.295915196379999 -1.991828278135000
12.351507274996001 8.295915196379999 8.329924721865000
1.085458694665000 0.825086065692000 2.353274678502000
1.085458694665000 0.825086065692000 12.675027678502000
1.085458694665000 8.315450065692000 2.353274678502000
1.085458694665000 8.315450065692000 12.675027678502000
9.807855694665001 0.825086065692000 -0.767614321498000
9.807855694665001 0.825086065692000 9.554138678501999
9.807855694665001 8.315450065692000 -0.767614321498000
9.807855694665001 8.315450065692000 9.554138678501999
2.112468607033000 0.444972563784000 6.935285400892999
2.112468607033000 0.444972563784000 17.257038400892998
2.112468607033000 7.935336563783999 6.935285400892999
2.112468607033000 7.935336563783999 17.257038400892998
10.834865607033001 0.444972563784000 3.814396400892999
10.834865607033001 0.444972563784000 14.136149400892998
10.834865607033001 7.935336563783999 3.814396400892999
10.834865607033001 7.935336563783999 14.136149400892998
0.308519904287000 2.262209773824000 6.060047874358000
0.308519904287000 2.262209773824000 16.381800874357999
0.308519904287000 9.752573773824000 6.060047874358000
0.308519904287000 9.752573773824000 16.381800874357999
9.030916904287000 2.262209773824000 2.939158874358000
9.030916904287000 2.262209773824000 13.260911874357999
9.030916904287000 9.752573773824000 2.939158874358000
9.030916904287000 9.752573773824000 13.260911874357999
3.829917298730000 2.321248822872000 7.950625321615998
3.829917298730000 2.321248822872000 18.272378321615996
3.829917298730000 9.811612822872000 7.950625321615998
3.829917298730000 9.811612822872000 18.272378321615996
12.552314298730002 2.321248822872000 4.829736321615998
12.552314298730002 2.321248822872000 15.151489321615998
12.552314298730002 9.811612822872000 4.829736321615998
12.552314298730002 9.811612822872000 15.151489321615998
1.983760916901000 6.751814109600000 4.421439277447000
1.983760916901000 6.751814109600000 14.743192277446999
1.983760916901000 14.242178109599999 4.421439277447000
1.983760916901000 14.242178109599999 14.743192277446999
10.706157916901001 6.751814109600000 1.300550277447000
10.706157916901001 6.751814109600000 11.622303277446999
10.706157916901001 14.242178109599999 1.300550277447000
10.706157916901001 14.242178109599999 11.622303277446999
2.600896671842000 6.755012495028000 9.385759637580000
2.600896671842000 6.755012495028000 19.707512637579999