DMC-ICE13 ice IX; Cartesian 4x4x4 supercell
1.0
27.139612000000000 0.000000000000000 0.000000000000000
0.000000000000000 27.139612000000000 0.000000000000000
0.000000000000000 0.000000000000000 27.231663999999999
H O
1536 768
Cartesian
-0.046340887490000 2.306928084127000 1.294600114476000
-0.046340887490000 2.306928084127000 8.102516114476000
-0.046340887490000 2.306928084127000 14.910432114475999
-0.046340887490000 2.306928084127000 21.718348114476001
-0.046340887490000 9.091831084127000 1.294600114476000
-0.046340887490000 9.091831084127000 8.102516114476000
-0.046340887490000 9.091831084127000 14.910432114475999
-0.046340887490000 9.091831084127000 21.718348114476001
-0.046340887490000 15.876734084126999 1.294600114476000
-0.046340887490000 15.876734084126999 8.102516114476000
-0.046340887490000 15.876734084126999 14.910432114475999
-0.046340887490000 15.876734084126999 21.718348114476001
-0.046340887490000 22.661637084127001 1.294600114476000
-0.046340887490000 22.661637084127001 8.102516114476000
-0.046340887490000 22.661637084127001 14.910432114475999
-0.046340887490000 22.661637084127001 21.718348114476001
6.738562112509999 2.306928084127000 1.294600114476000
6.738562112509999 2.306928084127000 8.102516114476000
6.738562112509999 2.306928084127000 14.910432114475999
6.738562112509999 2.306928084127000 21.718348114476001
6.738562112509999 9.091831084127000 1.294600114476000
6.738562112509999 9.091831084127000 8.102516114476000
6.738562112509999 9.091831084127000 14.910432114475999
6.738562112509999 9.091831084127000 21.718348114476001
6.738562112509999 15.876734084126999 1.294600114476000
6.738562112509999 15.876734084126999 8.102516114476000
6.738562112509999 15.876734084126999 14.910432114475999
6.738562112509999 15.876734084126999 21.718348114476001
6.738562112509999 22.661637084127001 1.294600114476000
6.738562112509999 22.661637084127001 8.102516114476000
6.738562112509999 22.661637084127001 14.910432114475999
6.738562112509999 22.661637084127001 21.718348114476001
13.523465112509999 2.306928084127000 1.294600114476000
13.523465112509999 2.306928084127000 8.102516114476000
13.523465112509999 2.306928084127000 14.910432114475999
13.523465112509999 2.306928084127000 21.718348114476001
13.523465112509999 9.091831084127000 1.294600114476000
13.523465112509999 9.091831084127000 8.102516114476000
13.523465112509999 9.091831084127000 14.910432114475999
13.523465112509999 9.091831084127000 21.718348114476001
13.523465112509999 15.876734084126999 1.294600114476000
13.523465112509999 15.876734084126999 8.102516114476000
13.523465112509999 15.876734084126999 14.910432114475999
13.523465112509999 15.876734084126999 21.718348114476001
13.523465112509999 22.661637084127001 1.294600114476000
13.523465112509999 22.661637084127001 8.102516114476000
13.523465112509999 22.661637084127001 14.910432114475999
13.523465112509999 22.661637084127001 21.718348114476001
20.308368112509999 2.306928084127000 1.294600114476000
20.308368112509999 2.306928084127000 8.102516114476000
20.308368112509999 2.306928084127000 14.910432114475999
20.308368112509999 2.306928084127000 21.718348114476001
20.308368112509999 9.091831084127000 1.294600114476000
20.308368112509999 9.091831084127000 8.102516114476000
20.308368112509999 9.091831084127000 14.910432114475999
20.308368112509999 9.091831084127000 21.718348114476001
20.308368112509999 15.876734084126999 1.294600114476000
20.308368112509999 15.876734084126999 8.102516114476000
20.308368112509999 15.876734084126999 14.910432114475999
20.308368112509999 15.876734084126999 21.718348114476001
20.308368112509999 22.661637084127001 1.294600114476000
20.308368112509999 22.661637084127001 8.102516114476000
20.308368112509999 22.661637084127001 14.910432114475999
20.308368112509999 22.661637084127001 21.718348114476001
0.773350028843000 1.115519472036000 1.928886840280000
0.773350028843000 1.115519472036000 8.736802840279999
0.773350028843000 1.115519472036000 15.544718840280000
0.773350028843000 1.115519472036000 22.352634840280000
0.773350028843000 7.900422472036000 1.928886840280000
0.773350028843000 7.900422472036000 8.736802840279999
0.773350028843000 7.900422472036000 15.544718840280000
0.773350028843000 7.900422472036000 22.352634840280000
0.773350028843000 14.685325472036000 1.928886840280000
0.773350028843000 14.685325472036000 8.736802840279999
0.773350028843000 14.685325472036000 15.544718840280000
0.773350028843000 14.685325472036000 22.352634840280000
0.773350028843000 21.470228472035998 1.928886840280000
0.773350028843000 21.470228472035998 8.736802840279999
0.773350028843000 21.470228472035998 15.544718840280000
0.773350028843000 21.470228472035998 22.352634840280000
7.558253028843000 1.115519472036000 1.928886840280000
7.558253028843000 1.115519472036000 8.736802840279999
7.558253028843000 1.115519472036000 15.544718840280000
7.558253028843000 1.115519472036000 22.352634840280000
7.558253028843000 7.900422472036000 1.928886840280000
7.558253028843000 7.900422472036000 8.736802840279999
7.558253028843000 7.900422472036000 15.544718840280000
7.558253028843000 7.900422472036000 22.352634840280000
7.558253028843000 14.685325472036000 1.928886840280000
7.558253028843000 14.685325472036000 8.736802840279999
7.558253028843000 14.685325472036000 15.544718840280000
7.558253028843000 14.685325472036000 22.352634840280000
7.558253028843000 21.470228472035998 1.928886840280000
7.558253028843000 21.470228472035998 8.736802840279999
7.558253028843000 21.470228472035998 15.544718840280000
7.558253028843000 21.470228472035998 22.352634840280000
14.343156028843000 1.115519472036000 1.928886840280000
14.343156028843000 1.115519472036000 8.736802840279999
14.343156028843000 1.115519472036000 15.544718840280000
14.343156028843000 1.115519472036000 22.352634840280000
14.343156028843000 7.900422472036000 1.928886840280000
14.343156028843000 7.900422472036000 8.736802840279999
14.343156028843000 7.900422472036000 15.544718840280000
14.343156028843000 7.900422472036000 22.352634840280000
14.343156028843000 14.685325472036000 1.928886840280000
14.343156028843000 14.685325472036000 8.736802840279999
14.343156028843000 14.685325472036000 15.544718840280000
14.343156028843000 14.685325472036000 22.352634840280000
14.343156028843000 21.470228472035998 1.928886840280000
14.343156028843000 21.470228472035998 8.736802840279999
14.343156028843000 21.470228472035998 15.544718840280000
14.343156028843000 21.470228472035998 22.352634840280000
21.128059028843001 1.115519472036000 1.928886840280000
21.128059028843001 1.115519472036000 8.736802840279999
21.128059028843001 1.115519472036000 15.544718840280000
21.128059028843001 1.115519472036000 22.352634840280000
21.128059028843001 7.900422472036000 1.928886840280000
21.128059028843001 7.900422472036000 8.736802840279999
21.128059028843001 7.900422472036000 15.544718840280000
21.128059028843001 7.900422472036000 22.352634840280000
21.128059028843001 14.685325472036000 1.928886840280000
21.128059028843001 14.685325472036000 8.736802840279999
21.128059028843001 14.685325472036000 15.544718840280000
21.128059028843001 14.685325472036000 22.352634840280000
21.128059028843001 21.470228472035998 1.928886840280000
21.128059028843001 21.470228472035998 8.736802840279999
21.128059028843001 21.470228472035998 15.544718840280000
21.128059028843001 21.470228472035998 22.352634840280000
2.098366950810000 2.512761686438000 0.723572544144000
2.098366950810000 2.512761686438000 7.531488544144000
2.098366950810000 2.512761686438000 14.339404544143999
2.098366950810000 2.512761686438000 21.147320544144002
2.098366950810000 9.297664686438001 0.723572544144000
2.098366950810000 9.297664686438001 7.531488544144000
2.098366950810000 9.297664686438001 14.339404544143999
2.098366950810000 9.297664686438001 21.147320544144002
2.098366950810000 16.082567686438001 0.723572544144000
2.098366950810000 16.082567686438001 7.531488544144000
2.098366950810000 16.082567686438001 14.339404544143999
2.098366950810000 16.082567686438001 21.147320544144002
2.098366950810000 22.867470686438001 0.723572544144000
2.098366950810000 22.867470686438001 7.531488544144000
2.098366950810000 22.867470686438001 14.339404544143999
2.098366950810000 22.867470686438001 21.147320544144002
8.883269950810000 2.512761686438000 0.723572544144000
8.883269950810000 2.512761686438000 7.531488544144000
8.883269950810000 2.512761686438000 14.339404544143999
8.883269950810000 2.512761686438000 21.147320544144002
8.883269950810000 9.297664686438001 0.723572544144000
8.883269950810000 9.297664686438001 7.531488544144000
8.883269950810000 9.297664686438001 14.339404544143999
8.883269950810000 9.297664686438001 21.147320544144002
8.883269950810000 16.082567686438001 0.723572544144000
8.883269950810000 16.082567686438001 7.531488544144000
8.883269950810000 16.082567686438001 14.339404544143999
8.883269950810000 16.082567686438001 21.147320544144002
8.883269950810000 22.867470686438001 0.723572544144000
8.883269950810000 22.867470686438001 7.531488544144000
8.883269950810000 22.867470686438001 14.339404544143999
8.883269950810000 22.867470686438001 21.147320544144002
15.668172950810000 2.512761686438000 0.723572544144000
15.668172950810000 2.512761686438000 7.531488544144000
15.668172950810000 2.512761686438000 14.339404544143999
15.668172950810000 2.512761686438000 21.147320544144002
15.668172950810000 9.297664686438001 0.723572544144000
15.668172950810000 9.297664686438001 7.531488544144000
15.668172950810000 9.297664686438001 14.339404544143999
15.668172950810000 9.297664686438001 21.147320544144002
15.668172950810000 16.082567686438001 0.723572544144000
15.668172950810000 16.082567686438001 7.531488544144000
15.668172950810000 16.082567686438001 14.339404544143999
15.668172950810000 16.082567686438001 21.147320544144002
15.668172950810000 22.867470686438001 0.723572544144000
15.668172950810000 22.867470686438001 7.531488544144000
15.668172950810000 22.867470686438001 14.339404544143999
15.668172950810000 22.867470686438001 21.147320544144002
22.453075950810000 2.512761686438000 0.723572544144000
22.453075950810000 2.512761686438000 7.531488544144000
22.453075950810000 2.512761686438000 14.339404544143999
22.453075950810000 2.512761686438000 21.147320544144002
22.453075950810000 9.297664686438001 0.723572544144000
22.453075950810000 9.297664686438001 7.531488544144000
22.453075950810000 9.297664686438001 14.339404544143999
22.453075950810000 9.297664686438001 21.147320544144002
22.453075950810000 16.082567686438001 0.723572544144000
22.453075950810000 16.082567686438001 7.531488544144000
22.453075950810000 16.082567686438001 14.339404544143999
22.453075950810000 16.082567686438001 21.147320544144002
22.453075950810000 22.867470686438001 0.723572544144000
22.453075950810000 22.867470686438001 7.531488544144000
22.453075950810000 22.867470686438001 14.339404544143999
22.453075950810000 22.867470686438001 21.147320544144002
1.085523415873000 3.346110612510000 2.996579114476000
1.085523415873000 3.346110612510000 9.804495114476000
1.085523415873000 3.346110612510000 16.612411114476000
1.085523415873000 3.346110612510000 23.420327114475999
1.085523415873000 10.131013612509999 2.996579114476000
1.085523415873000 10.131013612509999 9.804495114476000
1.085523415873000 10.131013612509999 16.612411114476000
1.085523415873000 10.131013612509999 23.420327114475999
1.085523415873000 16.915916612509999 2.996579114476000
1.085523415873000 16.915916612509999 9.804495114476000
1.085523415873000 16.915916612509999 16.612411114476000
1.085523415873000 16.915916612509999 23.420327114475999
1.085523415873000 23.700819612509999 2.996579114476000
1.085523415873000 23.700819612509999 9.804495114476000
1.085523415873000 23.700819612509999 16.612411114476000
1.085523415873000 23.700819612509999 23.420327114475999
7.870426415873000 3.346110612510000 2.996579114476000
7.870426415873000 3.346110612510000 9.804495114476000
7.870426415873000 3.346110612510000 16.612411114476000
7.870426415873000 3.346110612510000 23.420327114475999
7.870426415873000 10.131013612509999 2.996579114476000
7.870426415873000 10.131013612509999 9.804495114476000
7.870426415873000 10.131013612509999 16.612411114476000
7.870426415873000 10.131013612509999 23.420327114475999
7.870426415873000 16.915916612509999 2.996579114476000
7.870426415873000 16.915916612509999 9.804495114476000
7.870426415873000 16.915916612509999 16.612411114476000
7.870426415873000 16.915916612509999 23.420327114475999
7.870426415873000 23.700819612509999 2.996579114476000
7.870426415873000 23.700819612509999 9.804495114476000
7.870426415873000 23.700819612509999 16.612411114476000
7.870426415873000 23.700819612509999 23.420327114475999
14.655329415873000 3.346110612510000 2.996579114476000
14.655329415873000 3.346110612510000 9.804495114476000
14.655329415873000 3.346110612510000 16.612411114476000
14.655329415873000 3.346110612510000 23.420327114475999
14.655329415873000 10.131013612509999 2.996579114476000
14.655329415873000 10.131013612509999 9.804495114476000
14.655329415873000 10.131013612509999 16.612411114476000
14.655329415873000 10.131013612509999 23.420327114475999
14.655329415873000 16.915916612509999 2.996579114476000
14.655329415873000 16.915916612509999 9.804495114476000
14.655329415873000 16.915916612509999 16.612411114476000
14.655329415873000 16.915916612509999 23.420327114475999
14.655329415873000 23.700819612509999 2.996579114476000
14.655329415873000 23.700819612509999 9.804495114476000
14.655329415873000 23.700819612509999 16.612411114476000
14.655329415873000 23.700819612509999 23.420327114475999
21.440232415872998 3.346110612510000 2.996579114476000
21.440232415872998 3.346110612510000 9.804495114476000
21.440232415872998 3.346110612510000 16.612411114476000
21.440232415872998 3.346110612510000 23.420327114475999
21.440232415872998 10.131013612509999 2.996579114476000
21.440232415872998 10.131013612509999 9.804495114476000
21.440232415872998 10.131013612509999 16.612411114476000
21.440232415872998 10.131013612509999 23.420327114475999
21.440232415872998 16.915916612509999 2.996579114476000
21.440232415872998 16.915916612509999 9.804495114476000
21.440232415872998 16.915916612509999 16.612411114476000
21.440232415872998 16.915916612509999 23.420327114475999
21.440232415872998 23.700819612509999 2.996579114476000
21.440232415872998 23.700819612509999 9.804495114476000
21.440232415872998 23.700819612509999 16.612411114476000
21.440232415872998 23.700819612509999 23.420327114475999
2.276932027964000 4.165801528843000 3.630865840280000
2.276932027964000 4.165801528843000 10.438781840279999
2.276932027964000 4.165801528843000 17.246697840280000
2.276932027964000 4.165801528843000 24.054613840279998
2.276932027964000 10.950704528843000 3.630865840280000
2.276932027964000 10.950704528843000 10.438781840279999
2.276932027964000 10.950704528843000 17.246697840280000
2.276932027964000 10.950704528843000 24.054613840279998
2.276932027964000 17.735607528842998 3.630865840280000
2.276932027964000 17.735607528842998 10.438781840279999
2.276932027964000 17.735607528842998 17.246697840280000
2.276932027964000 17.735607528842998 24.054613840279998
2.276932027964000 24.520510528842998 3.630865840280000
2.276932027964000 24.520510528842998 10.438781840279999
2.276932027964000 24.520510528842998 17.246697840280000
2.276932027964000 24.520510528842998 24.054613840279998
9.061835027963999 4.165801528843000 3.630865840280000
9.061835027963999 4.165801528843000 10.438781840279999
9.061835027963999 4.165801528843000 17.246697840280000
9.061835027963999 4.165801528843000 24.054613840279998
9.061835027963999 10.950704528843000 3.630865840280000
9.061835027963999 10.950704528843000 10.438781840279999
9.061835027963999 10.950704528843000 17.246697840280000
9.061835027963999 10.950704528843000 24.054613840279998
9.061835027963999 17.735607528842998 3.630865840280000
9.061835027963999 17.735607528842998 10.438781840279999
9.061835027963999 17.735607528842998 17.246697840280000
9.061835027963999 17.735607528842998 24.054613840279998
9.061835027963999 24.520510528842998 3.630865840280000
9.061835027963999 24.520510528842998 10.438781840279999
9.061835027963999 24.520510528842998 17.246697840280000
9.061835027963999 24.520510528842998 24.054613840279998
15.846738027963999 4.165801528843000 3.630865840280000
15.846738027963999 4.165801528843000 10.438781840279999
15.846738027963999 4.165801528843000 17.246697840280000
15.846738027963999 4.165801528843000 24.054613840279998
15.846738027963999 10.950704528843000 3.630865840280000
15.846738027963999 10.950704528843000 10.438781840279999
15.846738027963999 10.950704528843000 17.246697840280000
15.846738027963999 10.950704528843000 24.054613840279998
15.846738027963999 17.735607528842998 3.630865840280000
15.846738027963999 17.735607528842998 10.438781840279999
15.846738027963999 17.735607528842998 17.246697840280000
15.846738027963999 17.735607528842998 24.054613840279998
15.846738027963999 24.520510528842998 3.630865840280000
15.846738027963999 24.520510528842998 10.438781840279999
15.846738027963999 24.520510528842998 17.246697840280000
15.846738027963999 24.520510528842998 24.054613840279998
22.631641027964001 4.165801528843000 3.630865840280000
22.631641027964001 4.165801528843000 10.438781840279999
22.631641027964001 4.165801528843000 17.246697840280000
22.631641027964001 4.165801528843000 24.054613840279998
22.631641027964001 10.950704528843000 3.630865840280000
22.631641027964001 10.950704528843000 10.438781840279999
22.631641027964001 10.950704528843000 17.246697840280000
22.631641027964001 10.950704528843000 24.054613840279998
22.631641027964001 17.735607528842998 3.630865840280000
22.631641027964001 17.735607528842998 10.438781840279999
22.631641027964001 17.735607528842998 17.246697840280000
22.631641027964001 17.735607528842998 24.054613840279998
22.631641027964001 24.520510528842998 3.630865840280000
22.631641027964001 24.520510528842998 10.438781840279999
22.631641027964001 24.520510528842998 17.246697840280000
22.631641027964001 24.520510528842998 24.054613840279998
0.879689813562000 5.490818450810000 2.425551544144000
0.879689813562000 5.490818450810000 9.233467544144000
0.879689813562000 5.490818450810000 16.041383544144001
0.879689813562000 5.490818450810000 22.849299544143999
0.879689813562000 12.275721450810000 2.425551544144000
0.879689813562000 12.275721450810000 9.233467544144000
0.879689813562000 12.275721450810000 16.041383544144001
0.879689813562000 12.275721450810000 22.849299544143999
0.879689813562000 19.060624450810000 2.425551544144000
0.879689813562000 19.060624450810000 9.233467544144000
0.879689813562000 19.060624450810000 16.041383544144001
0.879689813562000 19.060624450810000 22.849299544143999
0.879689813562000 25.845527450810000 2.425551544144000
0.879689813562000 25.845527450810000 9.233467544144000
0.879689813562000 25.845527450810000 16.041383544144001
0.879689813562000 25.845527450810000 22.849299544143999
7.664592813562000 5.490818450810000 2.425551544144000
7.664592813562000 5.490818450810000 9.233467544144000
7.664592813562000 5.490818450810000 16.041383544144001
7.664592813562000 5.490818450810000 22.849299544143999
7.664592813562000 12.275721450810000 2.425551544144000
7.664592813562000 12.275721450810000 9.233467544144000
7.664592813562000 12.275721450810000 16.041383544144001
7.664592813562000 12.275721450810000 22.849299544143999
7.664592813562000 19.060624450810000 2.425551544144000
7.664592813562000 19.060624450810000 9.233467544144000
7.664592813562000 19.060624450810000 16.041383544144001
7.664592813562000 19.060624450810000 22.849299544143999
7.664592813562000 25.845527450810000 2.425551544144000
7.664592813562000 25.845527450810000 9.233467544144000
7.664592813562000 25.845527450810000 16.041383544144001
7.664592813562000 25.845527450810000 22.849299544143999
14.449495813562001 5.490818450810000 2.425551544144000
14.449495813562001 5.490818450810000 9.233467544144000
14.449495813562001 5.490818450810000 16.041383544144001
14.449495813562001 5.490818450810000 22.849299544143999
14.449495813562001 12.275721450810000 2.425551544144000
14.449495813562001 12.275721450810000 9.233467544144000
14.449495813562001 12.275721450810000 16.041383544144001
14.449495813562001 12.275721450810000 22.849299544143999
14.449495813562001 19.060624450810000 2.425551544144000
14.449495813562001 19.060624450810000 9.233467544144000
14.449495813562001 19.060624450810000 16.041383544144001
14.449495813562001 19.060624450810000 22.849299544143999
14.449495813562001 25.845527450810000 2.425551544144000
14.449495813562001 25.845527450810000 9.233467544144000
14.449495813562001 25.845527450810000 16.041383544144001
14.449495813562001 25.845527450810000 22.849299544143999
21.234398813561999 5.490818450810000 2.425551544144000
21.234398813561999 5.490818450810000 9.233467544144000
21.234398813561999 5.490818450810000 16.041383544144001
21.234398813561999 5.490818450810000 22.849299544143999
21.234398813561999 12.275721450810000 2.425551544144000
21.234398813561999 12.275721450810000 9.233467544144000
21.234398813561999 12.275721450810000 16.041383544144001
21.234398813561999 12.275721450810000 22.849299544143999
21.234398813561999 19.060624450810000 2.425551544144000
21.234398813561999 19.060624450810000 9.233467544144000
21.234398813561999 19.060624450810000 16.041383544144001
21.234398813561999 19.060624450810000 22.849299544143999
21.234398813561999 25.845527450810000 2.425551544144000
21.234398813561999 25.845527450810000 9.233467544144000
21.234398813561999 25.845527450810000 16.041383544144001
21.234398813561999 25.845527450810000 22.849299544143999
5.699379584127000 3.438792387490000 -0.407378885524000
5.699379584127000 3.438792387490000 6.400537114475999
5.699379584127000 3.438792387490000 13.208453114475999
5.699379584127000 3.438792387490000 20.016369114475999
5.699379584127000 10.223695387490000 -0.407378885524000
5.699379584127000 10.223695387490000 6.400537114475999
5.699379584127000 10.223695387490000 13.208453114475999
5.699379584127000 10.223695387490000 20.016369114475999
5.699379584127000 17.008598387490000 -0.407378885524000
5.699379584127000 17.008598387490000 6.400537114475999
5.699379584127000 17.008598387490000 13.208453114475999
5.699379584127000 17.008598387490000 20.016369114475999
5.699379584127000 23.793501387490000 -0.407378885524000
5.699379584127000 23.793501387490000 6.400537114475999
5.699379584127000 23.793501387490000 13.208453114475999
5.699379584127000 23.793501387490000 20.016369114475999
12.484282584127000 3.438792387490000 -0.407378885524000
12.484282584127000 3.438792387490000 6.400537114475999
12.484282584127000 3.438792387490000 13.208453114475999
12.484282584127000 3.438792387490000 20.016369114475999
12.484282584127000 10.223695387490000 -0.407378885524000
12.484282584127000 10.223695387490000 6.400537114475999
12.484282584127000 10.223695387490000 13.208453114475999
12.484282584127000 10.223695387490000 20.016369114475999
12.484282584127000 17.008598387490000 -0.407378885524000
12.484282584127000 17.008598387490000 6.400537114475999
12.484282584127000 17.008598387490000 13.208453114475999
12.484282584127000 17.008598387490000 20.016369114475999
12.484282584127000 23.793501387490000 -0.407378885524000
12.484282584127000 23.793501387490000 6.400537114475999
12.484282584127000 23.793501387490000 13.208453114475999
12.484282584127000 23.793501387490000 20.016369114475999
19.269185584127001 3.438792387490000 -0.407378885524000
19.269185584127001 3.438792387490000 6.400537114475999
19.269185584127001 3.438792387490000 13.208453114475999
19.269185584127001 3.438792387490000 20.016369114475999
19.269185584127001 10.223695387490000 -0.407378885524000
19.269185584127001 10.223695387490000 6.400537114475999
19.269185584127001 10.223695387490000 13.208453114475999
19.269185584127001 10.223695387490000 20.016369114475999
19.269185584127001 17.008598387490000 -0.407378885524000
19.269185584127001 17.008598387490000 6.400537114475999
19.269185584127001 17.008598387490000 13.208453114475999
19.269185584127001 17.008598387490000 20.016369114475999
19.269185584127001 23.793501387490000 -0.407378885524000
19.269185584127001 23.793501387490000 6.400537114475999
19.269185584127001 23.793501387490000 13.208453114475999
19.269185584127001 23.793501387490000 20.016369114475999
26.054088584127001 3.438792387490000 -0.407378885524000
26.054088584127001 3.438792387490000 6.400537114475999
26.054088584127001 3.438792387490000 13.208453114475999
26.054088584127001 3.438792387490000 20.016369114475999
26.054088584127001 10.223695387490000 -0.407378885524000
26.054088584127001 10.223695387490000 6.400537114475999
26.054088584127001 10.223695387490000 13.208453114475999
26.054088584127001 10.223695387490000 20.016369114475999
26.054088584127001 17.008598387490000 -0.407378885524000
26.054088584127001 17.008598387490000 6.400537114475999
26.054088584127001 17.008598387490000 13.208453114475999
26.054088584127001 17.008598387490000 20.016369114475999
26.054088584127001 23.793501387490000 -0.407378885524000
26.054088584127001 23.793501387490000 6.400537114475999
26.054088584127001 23.793501387490000 13.208453114475999
26.054088584127001 23.793501387490000 20.016369114475999
4.507970972036000 2.619101471157000 0.226907840280000
4.507970972036000 2.619101471157000 7.034823840280000
4.507970972036000 2.619101471157000 13.842739840280000
4.507970972036000 2.619101471157000 20.650655840279999
4.507970972036000 9.404004471157000 0.226907840280000
4.507970972036000 9.404004471157000 7.034823840280000
4.507970972036000 9.404004471157000 13.842739840280000
4.507970972036000 9.404004471157000 20.650655840279999
4.507970972036000 16.188907471157002 0.226907840280000
4.507970972036000 16.188907471157002 7.034823840280000
4.507970972036000 16.188907471157002 13.842739840280000
4.507970972036000 16.188907471157002 20.650655840279999
4.507970972036000 22.973810471157002 0.226907840280000
4.507970972036000 22.973810471157002 7.034823840280000
4.507970972036000 22.973810471157002 13.842739840280000
4.507970972036000 22.973810471157002 20.650655840279999
11.292873972036000 2.619101471157000 0.226907840280000
11.292873972036000 2.619101471157000 7.034823840280000
11.292873972036000 2.619101471157000 13.842739840280000
11.292873972036000 2.619101471157000 20.650655840279999
11.292873972036000 9.404004471157000 0.226907840280000
11.292873972036000 9.404004471157000 7.034823840280000
11.292873972036000 9.404004471157000 13.842739840280000
11.292873972036000 9.404004471157000 20.650655840279999
11.292873972036000 16.188907471157002 0.226907840280000
11.292873972036000 16.188907471157002 7.034823840280000
11.292873972036000 16.188907471157002 13.842739840280000
11.292873972036000 16.188907471157002 20.650655840279999
11.292873972036000 22.973810471157002 0.226907840280000
11.292873972036000 22.973810471157002 7.034823840280000
11.292873972036000 22.973810471157002 13.842739840280000
11.292873972036000 22.973810471157002 20.650655840279999
18.077776972035998 2.619101471157000 0.226907840280000
18.077776972035998 2.619101471157000 7.034823840280000
18.077776972035998 2.619101471157000 13.842739840280000
18.077776972035998 2.619101471157000 20.650655840279999
18.077776972035998 9.404004471157000 0.226907840280000
18.077776972035998 9.404004471157000 7.034823840280000
18.077776972035998 9.404004471157000 13.842739840280000
18.077776972035998 9.404004471157000 20.650655840279999
18.077776972035998 16.188907471157002 0.226907840280000
18.077776972035998 16.188907471157002 7.034823840280000
18.077776972035998 16.188907471157002 13.842739840280000
18.077776972035998 16.188907471157002 20.650655840279999
18.077776972035998 22.973810471157002 0.226907840280000
18.077776972035998 22.973810471157002 7.034823840280000
18.077776972035998 22.973810471157002 13.842739840280000
18.077776972035998 22.973810471157002 20.650655840279999
24.862679972035998 2.619101471157000 0.226907840280000
24.862679972035998 2.619101471157000 7.034823840280000
24.862679972035998 2.619101471157000 13.842739840280000
24.862679972035998 2.619101471157000 20.650655840279999
24.862679972035998 9.404004471157000 0.226907840280000
24.862679972035998 9.404004471157000 7.034823840280000
24.862679972035998 9.404004471157000 13.842739840280000
24.862679972035998 9.404004471157000 20.650655840279999
24.862679972035998 16.188907471157002 0.226907840280000
24.862679972035998 16.188907471157002 7.034823840280000
24.862679972035998 16.188907471157002 13.842739840280000
24.862679972035998 16.188907471157002 20.650655840279999
24.862679972035998 22.973810471157002 0.226907840280000
24.862679972035998 22.973810471157002 7.034823840280000
24.862679972035998 22.973810471157002 13.842739840280000
24.862679972035998 22.973810471157002 20.650655840279999
5.905213186438000 1.294084549190000 5.829509544144000
5.905213186438000 1.294084549190000 12.637425544144000
5.905213186438000 1.294084549190000 19.445341544144000
5.905213186438000 1.294084549190000 26.253257544143999
5.905213186438000 8.078987549190000 5.829509544144000
5.905213186438000 8.078987549190000 12.637425544144000
5.905213186438000 8.078987549190000 19.445341544144000
5.905213186438000 8.078987549190000 26.253257544143999
5.905213186438000 14.863890549190000 5.829509544144000
5.905213186438000 14.863890549190000 12.637425544144000
5.905213186438000 14.863890549190000 19.445341544144000
5.905213186438000 14.863890549190000 26.253257544143999
5.905213186438000 21.648793549190000 5.829509544144000
5.905213186438000 21.648793549190000 12.637425544144000
5.905213186438000 21.648793549190000 19.445341544144000
5.905213186438000 21.648793549190000 26.253257544143999
12.690116186438001 1.294084549190000 5.829509544144000
12.690116186438001 1.294084549190000 12.637425544144000
12.690116186438001 1.294084549190000 19.445341544144000
12.690116186438001 1.294084549190000 26.253257544143999
12.690116186438001 8.078987549190000 5.829509544144000