DMC-ICE13 ice XVII; Cartesian 2x2x2 supercell
1.0
6.230389335743607 10.752349190520000 -0.040829816338000
-6.196600219555206 10.773204536568000 -0.058611368388000
-0.017434185046750 0.055293675010000 11.885618629412001
H O
96 48
Cartesian
2.447707155797436 5.647847862745304 1.136540975676218
2.438990063274061 5.675494700250304 7.079350290382219
-0.650592953980167 11.034450131029304 1.107235291482218
-0.659310046503542 11.062096968534306 7.050044606188218
5.562901823669240 11.024022458005305 1.116126067507218
5.554184731145865 11.051669295510305 7.058935382213218
2.464601713891637 16.410624726289306 1.086820383313218
2.455884621368261 16.438271563794306 7.029629698019218
-2.905310059451846 5.097306504470466 3.112551681508873
-2.914027151975221 5.124953341975466 9.055360996214873
-6.003610169229449 10.483908772754466 3.083245997314873
-6.012327261752824 10.511555610259467 9.026055312020873
0.209884608419957 10.473481099730467 3.092136773339873
0.201167515896582 10.501127937235466 9.034946088045874
-2.888415501357646 15.860083368014468 3.062831089145873
-2.897132593881020 15.887730205519468 9.005640403851874
0.252113494718333 0.753547956079230 5.118155151367717
0.243396402194958 0.781194793584230 11.060964466073717
-2.846186615059271 6.140150224363230 5.088849467173717
-2.854903707582646 6.167797061868231 11.031658781879717
3.367308162590136 6.129722551339230 5.097740243198717
3.358591070066761 6.157369388844231 11.040549557904718
0.269008052812533 11.516324819623232 5.068434559004717
0.260290960289158 11.543971657128232 11.011243873710718
2.038066273442463 4.154625516557047 1.532720868226767
2.029349180919088 4.182272354062047 7.475530182932768
-1.060233836335140 9.541227784841048 1.503415184032767
-1.068950928858516 9.568874622346048 7.446224498738768
5.153260941314264 9.530800111817047 1.512305960057768
5.144543848790891 9.558446949322047 7.455115274763767
2.054960831536663 14.917402380101048 1.483000275863767
2.046243739013288 14.945049217606048 7.425809590569767
-1.406897045576569 5.490504049025038 3.502873169000408
-1.415614138099944 5.518150886530038 9.445682483706408
-4.505197155354172 10.877106317309039 3.473567484806408
-4.513914247877548 10.904753154814038 9.416376799512408
1.708297622295234 10.866678644285038 3.482458260831407
1.699580529771859 10.894325481790037 9.425267575537408
-1.390002487482369 16.253280912569039 3.453152576637407
-1.398719580005744 16.280927750074039 9.395961891343408
-0.837424333720364 1.857654470505858 5.501496756265968
-0.846141426243739 1.885301308010858 11.444306070971969
-3.935724443497967 7.244256738789858 5.472191072071968
-3.944441536021343 7.271903576294858 11.415000386777969
2.277770334151439 7.233829065765858 5.481081848096968
2.269053241628064 7.261475903270858 11.423891162802969
-0.820529775626164 12.620431334049860 5.451776163902968
-0.829246868149539 12.648078171554859 11.394585478608969
0.716933432343113 5.824670091825422 2.538224208004126
0.708216339819738 5.852316929330422 8.481033522710128
-2.381366677434490 11.211272360109422 2.508918523810126
-2.390083769957866 11.238919197614422 8.451727838516128
3.832128100214916 11.200844687085421 2.517809299835126
3.823411007691541 11.228491524590423 8.460618614541126
0.733827990437313 16.587446955369423 2.488503615641126
0.725110897913938 16.615093792874422 8.431312930347126
0.923397532695316 8.896542456136281 4.505184581867880
0.914680440171941 8.924189293641280 10.447993896573880
-2.174902577082287 14.283144724420282 4.475878897673880
-2.183619669605663 14.310791561925281 10.418688212379880
4.038592200567119 14.272717051396281 4.484769673698880
4.029875108043743 14.300363888901281 10.427578988404880
0.940292090789516 19.659319319680282 4.455463989504880
0.931574998266141 19.686966157185282 10.398273304210880
-1.825981433854971 7.529512060820658 0.546014179415357
-1.834698526378346 7.557158898325659 6.488823494121357
-4.924281543632574 12.916114329104659 0.516708495221357
-4.932998636155951 12.943761166609658 6.459517809927357
1.289213234016832 12.905686656080658 0.525599271246357
1.280496141493457 12.933333493585659 6.468408585952357
-1.809086875760771 18.292288924364659 0.496293587052357
-1.817803968284146 18.319935761869658 6.439102901758357
-0.662919817340274 7.340277832327126 1.630596766133060
-0.671636909863649 7.367924669832126 7.573406080839060
-3.761219927117877 12.726880100611126 1.601291081939060
-3.769937019641252 12.754526938116125 7.544100396645060
2.452274850531529 12.716452427587125 1.610181857964060
2.443557758008154 12.744099265092126 7.552991172670060
-0.646025259246074 18.103054695871126 1.580876173770060
-0.654742351769449 18.130701533376126 7.523685488476060
0.300414663890443 6.935217472820593 3.614728761766080
0.291697571367068 6.962864310325593 9.557538076472081
-2.797885445887160 12.321819741104594 3.585423077572080
-2.806602538410536 12.349466578609594 9.528232392278081
3.415609331762246 12.311392068080593 3.594313853597080
3.406892239238871 12.339038905585593 9.537123168303081
0.317309221984644 17.697994336364594 3.565008169403080
0.308592129461269 17.725641173869594 9.507817484109081
0.172888664128568 7.988958098801410 5.590652401835019
0.164171571605193 8.016604936306409 11.533461716541019
-2.925411445649035 13.375560367085409 5.561346717641019
-2.934128538172410 13.403207204590410 11.504156032347019
3.288083332000371 13.365132694061410 5.570237493666019
3.279366239476996 13.392779531566411 11.513046808372019
0.189783222222768 18.751734962345409 5.540931809472019
0.181066129699393 18.779381799850412 11.483741124178019
-0.077735784045353 1.323933249602572 5.872738707363856
-0.086452876568728 1.351580087107572 11.815548022069857
-3.176035893822957 6.710535517886573 5.843433023169856
-3.184752986346332 6.738182355391573 11.786242337875857
3.037458883826449 6.700107844862573 5.852323799194856
3.028741791303075 6.727754682367573 11.795133113900857
-0.060841225951153 12.086710113146573 5.823018115000856
-0.069558318474528 12.114356950651572 11.765827429706857
2.120504145917976 5.082768049158548 1.896254253800760
2.111787053394601 5.110414886663548 7.839063568506761
-0.977795963859627 10.469370317442548 1.866948569606760
-0.986513056383002 10.497017154947549 7.809757884312761
5.235698813789781 10.458942644418549 1.875839345631760
5.226981721266404 10.486589481923549 7.818648660337761
2.137398704012176 15.845544912702550 1.846533661437760
2.128681611488802 15.873191750207550 7.789342976143761
-2.251400246096642 5.102269194974025 3.871260113836954
-2.260117338620018 5.129916032479025 9.814069428542954
-5.349700355874245 10.488871463258025 3.841954429642954
-5.358417448397621 10.516518300763025 9.784763744348954
0.863794421775162 10.478443790234024 3.850845205667954
0.855077329251786 10.506090627739026 9.793654520373954
-2.234505688002442 15.865046058518026 3.821539521473954
-2.243222780525817 15.892692896023025 9.764348836179954
-0.059753620540262 6.347952971993556 2.888144789503635
-0.068470713063637 6.375599809498556 8.830954104209635
-3.158053730317864 11.734555240277556 2.858839105309635
-3.166770822841240 11.762202077782558 8.801648420015635
3.055441047331541 11.724127567253557 2.867729881334635
3.046723954808166 11.751774404758557 8.810539196040635
-0.042859062446061 17.110729835537558 2.838424197140635
-0.051576154969436 17.138376673042558 8.781233511846635
0.859701554577256 7.964741187451218 4.862726180546602
0.850984462053881 7.992388024956218 10.805535495252602
-2.238598555200346 13.351343455735218 4.833420496352602
-2.247315647723721 13.378990293240218 10.776229811058602
3.974896222449059 13.340915782711217 4.842311272377602
3.966179129925684 13.368562620216219 10.785120587083602
0.876596112671457 18.727518050995219 4.813005588183602
0.867879020148082 18.755164888500218 10.755814902889602
-0.986343610105518 7.941993938213103 0.898546988891357
-0.995060702628893 7.969640775718103 6.841356303597357
-4.084643719883120 13.328596206497103 0.869241304697357
-4.093360812406496 13.356243044002102 6.812050619403357
2.128851057766285 13.318168533473102 0.878132080722357
2.120133965242910 13.345815370978103 6.820941395428357
-0.969449052011318 18.704770801757103 0.848826396528357
-0.978166144534693 18.732417639262103 6.791635711234357
