Ice XVII 2x2x2 diagnostic supercell
1
6.233506088788 10.752349190520 -0.040829816338
-6.199700069590 10.773204536568 -0.058611368388
-0.017442906500 0.055293675010 11.885618629412
H O
96 48
Direct
0.458709107540 0.065927913464 0.097524087357
0.458709107540 0.065927913464 0.597524087357
0.458709107540 0.565927913464 0.097524087357
0.458709107540 0.565927913464 0.597524087357
0.958709107540 0.065927913464 0.097524087357
0.958709107540 0.065927913464 0.597524087357
0.958709107540 0.565927913464 0.097524087357
0.958709107540 0.565927913464 0.597524087357
0.001836048972 0.469958228313 0.264199251197
0.001836048972 0.469958228313 0.764199251197
0.001836048972 0.969958228313 0.264199251197
0.001836048972 0.969958228313 0.764199251197
0.501836048972 0.469958228313 0.264199251197
0.501836048972 0.469958228313 0.764199251197
0.501836048972 0.969958228313 0.264199251197
0.501836048972 0.969958228313 0.764199251197
0.054720316965 0.013120664814 0.430870159278
0.054720316965 0.013120664814 0.930870159279
0.054720316965 0.513120664814 0.430870159278
0.054720316965 0.513120664814 0.930870159279
0.554720316965 0.013120664814 0.430870159278
0.554720316965 0.013120664814 0.930870159279
0.554720316965 0.513120664814 0.430870159278
0.554720316965 0.513120664814 0.930870159279
0.356494531143 0.029171052733 0.130324409530
0.356494531143 0.029171052733 0.630324409530
0.356494531143 0.529171052733 0.130324409530
0.356494531143 0.529171052733 0.630324409530
0.856494531143 0.029171052733 0.130324409530
0.856494531143 0.029171052733 0.630324409530
0.856494531143 0.529171052733 0.130324409530
0.856494531143 0.529171052733 0.630324409530
0.140708720304 0.367683716389 0.297011778354
0.140708720304 0.367683716389 0.797011778354
0.140708720304 0.867683716389 0.297011778354
0.140708720304 0.867683716389 0.797011778354
0.640708720304 0.367683716389 0.297011778354
0.640708720304 0.367683716389 0.797011778354
0.640708720304 0.867683716389 0.297011778354
0.640708720304 0.867683716389 0.797011778354
0.018075729176 0.152012267570 0.463681748828
0.018075729176 0.152012267570 0.963681748828
0.018075729176 0.652012267571 0.463681748828
0.018075729176 0.652012267571 0.963681748828
0.518075729176 0.152012267570 0.463681748828
0.518075729176 0.152012267570 0.963681748828
0.518075729176 0.652012267571 0.463681748828
0.518075729176 0.652012267571 0.963681748828
0.327354504901 0.212834698025 0.215728322198
0.327354504901 0.212834698025 0.715728322198
0.327354504901 0.712834698025 0.215728322198
0.327354504901 0.712834698025 0.715728322198
0.827354504901 0.212834698025 0.215728322198
0.827354504901 0.212834698025 0.715728322198
0.827354504901 0.712834698025 0.215728322198
0.827354504901 0.712834698025 0.715728322198
0.486111595825 0.338669645394 0.382385003432
0.486111595825 0.338669645394 0.882385003431
0.486111595825 0.838669645394 0.382385003432
0.486111595825 0.838669645394 0.882385003431
0.986111595825 0.338669645394 0.382385003432
0.986111595825 0.338669645394 0.882385003431
0.986111595825 0.838669645394 0.382385003432
0.986111595825 0.838669645394 0.882385003431
0.201706567917 0.497343063279 0.049084511057
0.201706567917 0.497343063279 0.549084511057
0.201706567917 0.997343063279 0.049084511057
0.201706567917 0.997343063279 0.549084511057
0.701706567917 0.497343063279 0.049084511057
0.701706567917 0.497343063279 0.549084511057
0.701706567917 0.997343063279 0.049084511057
0.701706567917 0.997343063279 0.549084511057
0.286515991796 0.394665302218 0.140121190727
0.286515991796 0.394665302218 0.640121190726
0.286515991796 0.894665302219 0.140121190727
0.286515991796 0.894665302219 0.640121190726
0.786515991796 0.394665302218 0.140121190727
0.786515991796 0.394665302218 0.640121190726
0.786515991796 0.894665302219 0.140121190727
0.786515991796 0.894665302219 0.640121190726
0.345151091953 0.297689457973 0.306779926029
0.345151091953 0.297689457973 0.806779926029
0.345151091953 0.797689457973 0.306779926029
0.345151091953 0.797689457973 0.806779926029
0.845151091953 0.297689457973 0.306779926029
0.845151091953 0.297689457973 0.806779926029
0.845151091953 0.797689457973 0.306779926029
0.845151091953 0.797689457973 0.806779926029
0.383506023531 0.356364611670 0.473445941295
0.383506023531 0.356364611670 0.973445941295
0.383506023531 0.856364611670 0.473445941295
0.383506023531 0.856364611670 0.973445941295
0.883506023531 0.356364611670 0.473445941295
0.883506023531 0.356364611670 0.973445941295
0.883506023531 0.856364611670 0.473445941295
0.883506023531 0.856364611670 0.973445941295
0.054503846117 0.065954346866 0.494617061779
0.054503846117 0.065954346866 0.994617061780
0.054503846117 0.565954346865 0.494617061779
0.054503846117 0.565954346865 0.994617061780
0.554503846117 0.065954346866 0.494617061779
0.554503846117 0.065954346866 0.994617061780
0.554503846117 0.565954346865 0.494617061779
0.554503846117 0.565954346865 0.994617061780
0.406099729796 0.065655975246 0.161260719992
0.406099729796 0.065655975246 0.661260719993
0.406099729796 0.565655975246 0.161260719992
0.406099729796 0.565655975246 0.661260719993
0.906099729796 0.065655975246 0.161260719992
0.906099729796 0.065655975246 0.661260719993
0.906099729796 0.565655975246 0.161260719992
0.906099729796 0.565655975246 0.661260719993
0.054663147938 0.417366815821 0.327955537011
0.054663147938 0.417366815821 0.827955537011
0.054663147938 0.917366815820 0.327955537011
0.054663147938 0.917366815820 0.827955537011
0.554663147938 0.417366815821 0.327955537011
0.554663147938 0.417366815821 0.827955537011
0.554663147938 0.917366815820 0.327955537011
0.554663147938 0.917366815820 0.827955537011
0.289003362719 0.299531605323 0.245464774864
0.289003362719 0.299531605323 0.745464774864
0.289003362719 0.799531605323 0.245464774864
0.289003362719 0.799531605323 0.745464774864
0.789003362719 0.299531605323 0.245464774864
0.789003362719 0.299531605323 0.745464774864
0.789003362719 0.799531605323 0.245464774864
0.789003362719 0.799531605323 0.745464774864
0.437776290396 0.300266320780 0.412111449874
0.437776290396 0.300266320780 0.912111449874
0.437776290396 0.800266320780 0.412111449874
0.437776290396 0.800266320780 0.912111449874
0.937776290396 0.300266320780 0.412111449874
0.937776290396 0.300266320780 0.912111449874
0.937776290396 0.800266320780 0.412111449874
0.937776290396 0.800266320780 0.912111449874
0.288413393009 0.448939314123 0.078804127196
0.288413393009 0.448939314123 0.578804127196
0.288413393009 0.948939314123 0.078804127196
0.288413393009 0.948939314123 0.578804127196
0.788413393009 0.448939314123 0.078804127196
0.788413393009 0.448939314123 0.578804127196
0.788413393009 0.948939314123 0.078804127196
0.788413393009 0.948939314123 0.578804127196
