DMC-ICE13 ice XIII; Cartesian 3x3x3 supercell
1.0
26.167191000000003 0.000000000000000 -9.362667000000000
0.000000000000000 22.471091999999999 0.000000000000000
0.000000000000000 0.000000000000000 30.965258999999996
H O
1512 756
Cartesian
2.995157738639000 4.823097812148000 2.019743921222000
2.995157738639000 4.823097812148000 12.341496921221999
2.995157738639000 4.823097812148000 22.663249921221997
2.995157738639000 12.313461812147999 2.019743921222000
2.995157738639000 12.313461812147999 12.341496921221999
2.995157738639000 12.313461812147999 22.663249921221997
2.995157738639000 19.803825812147998 2.019743921222000
2.995157738639000 19.803825812147998 12.341496921221999
2.995157738639000 19.803825812147998 22.663249921221997
11.717554738639000 4.823097812148000 -1.101145078778000
11.717554738639000 4.823097812148000 9.220607921221999
11.717554738639000 4.823097812148000 19.542360921221999
11.717554738639000 12.313461812147999 -1.101145078778000
11.717554738639000 12.313461812147999 9.220607921221999
11.717554738639000 12.313461812147999 19.542360921221999
11.717554738639000 19.803825812147998 -1.101145078778000
11.717554738639000 19.803825812147998 9.220607921221999
11.717554738639000 19.803825812147998 19.542360921221999
20.439951738639003 4.823097812148000 -4.222034078778000
20.439951738639003 4.823097812148000 6.099718921221999
20.439951738639003 4.823097812148000 16.421471921222000
20.439951738639003 12.313461812147999 -4.222034078778000
20.439951738639003 12.313461812147999 6.099718921221999
20.439951738639003 12.313461812147999 16.421471921222000
20.439951738639003 19.803825812147998 -4.222034078778000
20.439951738639003 19.803825812147998 6.099718921221999
20.439951738639003 19.803825812147998 16.421471921222000
2.160563904091000 3.689296394196000 2.677807790770000
2.160563904091000 3.689296394196000 12.999560790769999
2.160563904091000 3.689296394196000 23.321313790769999
2.160563904091000 11.179660394195999 2.677807790770000
2.160563904091000 11.179660394195999 12.999560790769999
2.160563904091000 11.179660394195999 23.321313790769999
2.160563904091000 18.670024394195998 2.677807790770000
2.160563904091000 18.670024394195998 12.999560790769999
2.160563904091000 18.670024394195998 23.321313790769999
10.882960904091000 3.689296394196000 -0.443081209230000
10.882960904091000 3.689296394196000 9.878671790769999
10.882960904091000 3.689296394196000 20.200424790769997
10.882960904091000 11.179660394195999 -0.443081209230000
10.882960904091000 11.179660394195999 9.878671790769999
10.882960904091000 11.179660394195999 20.200424790769997
10.882960904091000 18.670024394195998 -0.443081209230000
10.882960904091000 18.670024394195998 9.878671790769999
10.882960904091000 18.670024394195998 20.200424790769997
19.605357904091001 3.689296394196000 -3.563970209230000
19.605357904091001 3.689296394196000 6.757782790769999
19.605357904091001 3.689296394196000 17.079535790769999
19.605357904091001 11.179660394195999 -3.563970209230000
19.605357904091001 11.179660394195999 6.757782790769999
19.605357904091001 11.179660394195999 17.079535790769999
19.605357904091001 18.670024394195998 -3.563970209230000
19.605357904091001 18.670024394195998 6.757782790769999
19.605357904091001 18.670024394195998 17.079535790769999
1.053848727937000 5.362411510512000 1.281120689581000
1.053848727937000 5.362411510512000 11.602873689580999
1.053848727937000 5.362411510512000 21.924626689580997
1.053848727937000 12.852775510512000 1.281120689581000
1.053848727937000 12.852775510512000 11.602873689580999
1.053848727937000 12.852775510512000 21.924626689580997
1.053848727937000 20.343139510512000 1.281120689581000
1.053848727937000 20.343139510512000 11.602873689580999
1.053848727937000 20.343139510512000 21.924626689580997
9.776245727937001 5.362411510512000 -1.839768310419000
9.776245727937001 5.362411510512000 8.481984689580999
9.776245727937001 5.362411510512000 18.803737689580998
9.776245727937001 12.852775510512000 -1.839768310419000
9.776245727937001 12.852775510512000 8.481984689580999
9.776245727937001 12.852775510512000 18.803737689580998
9.776245727937001 20.343139510512000 -1.839768310419000
9.776245727937001 20.343139510512000 8.481984689580999
9.776245727937001 20.343139510512000 18.803737689580998
18.498642727937003 5.362411510512000 -4.960657310419000
18.498642727937003 5.362411510512000 5.361095689580999
18.498642727937003 5.362411510512000 15.682848689580998
18.498642727937003 12.852775510512000 -4.960657310419000
18.498642727937003 12.852775510512000 5.361095689580999
18.498642727937003 12.852775510512000 15.682848689580998
18.498642727937003 20.343139510512000 -4.960657310419000
18.498642727937003 20.343139510512000 5.361095689580999
18.498642727937003 20.343139510512000 15.682848689580998
4.106216668499000 6.823047471240000 2.142473040366999
4.106216668499000 6.823047471240000 12.464226040366999
4.106216668499000 6.823047471240000 22.785979040366996
4.106216668499000 14.313411471239998 2.142473040366999
4.106216668499000 14.313411471239998 12.464226040366999
4.106216668499000 14.313411471239998 22.785979040366996
4.106216668499000 21.803775471239998 2.142473040366999
4.106216668499000 21.803775471239998 12.464226040366999
4.106216668499000 21.803775471239998 22.785979040366996
12.828613668499001 6.823047471240000 -0.978415959633001
12.828613668499001 6.823047471240000 9.343337040366999
12.828613668499001 6.823047471240000 19.665090040366994
12.828613668499001 14.313411471239998 -0.978415959633001
12.828613668499001 14.313411471239998 9.343337040366999
12.828613668499001 14.313411471239998 19.665090040366994
12.828613668499001 21.803775471239998 -0.978415959633001
12.828613668499001 21.803775471239998 9.343337040366999
12.828613668499001 21.803775471239998 19.665090040366994
21.551010668499003 6.823047471240000 -4.099304959633001
21.551010668499003 6.823047471240000 6.222448040366999
21.551010668499003 6.823047471240000 16.544201040366996
21.551010668499003 14.313411471239998 -4.099304959633001
21.551010668499003 14.313411471239998 6.222448040366999
21.551010668499003 14.313411471239998 16.544201040366996
21.551010668499003 21.803775471239998 -4.099304959633001
21.551010668499003 21.803775471239998 6.222448040366999
21.551010668499003 21.803775471239998 16.544201040366996
4.961997205360001 5.615818014996000 2.780589796374000
4.961997205360001 5.615818014996000 13.102342796374000
4.961997205360001 5.615818014996000 23.424095796373997
4.961997205360001 13.106182014996000 2.780589796374000
4.961997205360001 13.106182014996000 13.102342796374000
4.961997205360001 13.106182014996000 23.424095796373997
4.961997205360001 20.596546014996001 2.780589796374000
4.961997205360001 20.596546014996001 13.102342796374000
4.961997205360001 20.596546014996001 23.424095796373997
13.684394205360002 5.615818014996000 -0.340299203626000
13.684394205360002 5.615818014996000 9.981453796374000
13.684394205360002 5.615818014996000 20.303206796373996
13.684394205360002 13.106182014996000 -0.340299203626000
13.684394205360002 13.106182014996000 9.981453796374000
13.684394205360002 13.106182014996000 20.303206796373996
13.684394205360002 20.596546014996001 -0.340299203626000
13.684394205360002 20.596546014996001 9.981453796374000
13.684394205360002 20.596546014996001 20.303206796373996
22.406791205360001 5.615818014996000 -3.461188203626000
22.406791205360001 5.615818014996000 6.860564796374000
22.406791205360001 5.615818014996000 17.182317796373997
22.406791205360001 13.106182014996000 -3.461188203626000
22.406791205360001 13.106182014996000 6.860564796374000
22.406791205360001 13.106182014996000 17.182317796373997
22.406791205360001 20.596546014996001 -3.461188203626000
22.406791205360001 20.596546014996001 6.860564796374000
22.406791205360001 20.596546014996001 17.182317796373997
-0.345799429065000 5.638925787936000 0.641962219029000
-0.345799429065000 5.638925787936000 10.963715219029000
-0.345799429065000 5.638925787936000 21.285468219028999
-0.345799429065000 13.129289787935999 0.641962219029000
-0.345799429065000 13.129289787935999 10.963715219029000
-0.345799429065000 13.129289787935999 21.285468219028999
-0.345799429065000 20.619653787935999 0.641962219029000
-0.345799429065000 20.619653787935999 10.963715219029000
-0.345799429065000 20.619653787935999 21.285468219028999
8.376597570935001 5.638925787936000 -2.478926780971000
8.376597570935001 5.638925787936000 7.842826219028999
8.376597570935001 5.638925787936000 18.164579219028997
8.376597570935001 13.129289787935999 -2.478926780971000
8.376597570935001 13.129289787935999 7.842826219028999
8.376597570935001 13.129289787935999 18.164579219028997
8.376597570935001 20.619653787935999 -2.478926780971000
8.376597570935001 20.619653787935999 7.842826219028999
8.376597570935001 20.619653787935999 18.164579219028997
17.098994570935002 5.638925787936000 -5.599815780971000
17.098994570935002 5.638925787936000 4.721937219028999
17.098994570935002 5.638925787936000 15.043690219028999
17.098994570935002 13.129289787935999 -5.599815780971000
17.098994570935002 13.129289787935999 4.721937219028999
17.098994570935002 13.129289787935999 15.043690219028999
17.098994570935002 20.619653787935999 -5.599815780971000
17.098994570935002 20.619653787935999 4.721937219028999
17.098994570935002 20.619653787935999 15.043690219028999
2.021284668795000 3.379412545152000 0.258462071909000
2.021284668795000 3.379412545152000 10.580215071908999
2.021284668795000 3.379412545152000 20.901968071909000
2.021284668795000 10.869776545152000 0.258462071909000
2.021284668795000 10.869776545152000 10.580215071908999
2.021284668795000 10.869776545152000 20.901968071909000
2.021284668795000 18.360140545151999 0.258462071909000
2.021284668795000 18.360140545151999 10.580215071908999
2.021284668795000 18.360140545151999 20.901968071909000
10.743681668795000 3.379412545152000 -2.862426928091000
10.743681668795000 3.379412545152000 7.459326071909000
10.743681668795000 3.379412545152000 17.781079071908998
10.743681668795000 10.869776545152000 -2.862426928091000
10.743681668795000 10.869776545152000 7.459326071909000
10.743681668795000 10.869776545152000 17.781079071908998
10.743681668795000 18.360140545151999 -2.862426928091000
10.743681668795000 18.360140545151999 7.459326071909000
10.743681668795000 18.360140545151999 17.781079071908998
19.466078668795003 3.379412545152000 -5.983315928091000
19.466078668795003 3.379412545152000 4.338437071909000
19.466078668795003 3.379412545152000 14.660190071908998
19.466078668795003 10.869776545152000 -5.983315928091000
19.466078668795003 10.869776545152000 4.338437071909000
19.466078668795003 10.869776545152000 14.660190071908998
19.466078668795003 18.360140545151999 -5.983315928091000
19.466078668795003 18.360140545151999 4.338437071909000
19.466078668795003 18.360140545151999 14.660190071908998
2.730947611112000 3.671454347148000 4.993036325127000
2.730947611112000 3.671454347148000 15.314789325126998
2.730947611112000 3.671454347148000 25.636542325126999
2.730947611112000 11.161818347147999 4.993036325127000
2.730947611112000 11.161818347147999 15.314789325126998
2.730947611112000 11.161818347147999 25.636542325126999
2.730947611112000 18.652182347147999 4.993036325127000
2.730947611112000 18.652182347147999 15.314789325126998
2.730947611112000 18.652182347147999 25.636542325126999
11.453344611112001 3.671454347148000 1.872147325127000
11.453344611112001 3.671454347148000 12.193900325127000
11.453344611112001 3.671454347148000 22.515653325126998
11.453344611112001 11.161818347147999 1.872147325127000
11.453344611112001 11.161818347147999 12.193900325127000
11.453344611112001 11.161818347147999 22.515653325126998
11.453344611112001 18.652182347147999 1.872147325127000
11.453344611112001 18.652182347147999 12.193900325127000
11.453344611112001 18.652182347147999 22.515653325126998
20.175741611112002 3.671454347148000 -1.248741674873000
20.175741611112002 3.671454347148000 9.073011325126998
20.175741611112002 3.671454347148000 19.394764325126999
20.175741611112002 11.161818347147999 -1.248741674873000
20.175741611112002 11.161818347147999 9.073011325126998
20.175741611112002 11.161818347147999 19.394764325126999
20.175741611112002 18.652182347147999 -1.248741674873000
20.175741611112002 18.652182347147999 9.073011325126998
20.175741611112002 18.652182347147999 19.394764325126999
1.554584094913000 2.675565511164000 4.778007737807000
1.554584094913000 2.675565511164000 15.099760737806999
1.554584094913000 2.675565511164000 25.421513737806997
1.554584094913000 10.165929511164000 4.778007737807000
1.554584094913000 10.165929511164000 15.099760737806999
1.554584094913000 10.165929511164000 25.421513737806997
1.554584094913000 17.656293511163998 4.778007737807000
1.554584094913000 17.656293511163998 15.099760737806999
1.554584094913000 17.656293511163998 25.421513737806997
10.276981094913001 2.675565511164000 1.657118737807000
10.276981094913001 2.675565511164000 11.978871737806999
10.276981094913001 2.675565511164000 22.300624737806999
10.276981094913001 10.165929511164000 1.657118737807000
10.276981094913001 10.165929511164000 11.978871737806999
10.276981094913001 10.165929511164000 22.300624737806999
10.276981094913001 17.656293511163998 1.657118737807000
10.276981094913001 17.656293511163998 11.978871737806999
10.276981094913001 17.656293511163998 22.300624737806999
18.999378094913002 2.675565511164000 -1.463770262193000
18.999378094913002 2.675565511164000 8.857982737806999
18.999378094913002 2.675565511164000 19.179735737807000
18.999378094913002 10.165929511164000 -1.463770262193000
18.999378094913002 10.165929511164000 8.857982737806999
18.999378094913002 10.165929511164000 19.179735737807000
18.999378094913002 17.656293511163998 -1.463770262193000
18.999378094913002 17.656293511163998 8.857982737806999
18.999378094913002 17.656293511163998 19.179735737807000
2.594040867800000 2.729061690852000 -1.079087382719000
2.594040867800000 2.729061690852000 9.242665617280998
2.594040867800000 2.729061690852000 19.564418617281000
2.594040867800000 10.219425690851999 -1.079087382719000
2.594040867800000 10.219425690851999 9.242665617280998
2.594040867800000 10.219425690851999 19.564418617281000
2.594040867800000 17.709789690851999 -1.079087382719000
2.594040867800000 17.709789690851999 9.242665617280998
2.594040867800000 17.709789690851999 19.564418617281000
11.316437867800001 2.729061690852000 -4.199976382719000
11.316437867800001 2.729061690852000 6.121776617280999
11.316437867800001 2.729061690852000 16.443529617280998
11.316437867800001 10.219425690851999 -4.199976382719000
11.316437867800001 10.219425690851999 6.121776617280999
11.316437867800001 10.219425690851999 16.443529617280998
11.316437867800001 17.709789690851999 -4.199976382719000
11.316437867800001 17.709789690851999 6.121776617280999
11.316437867800001 17.709789690851999 16.443529617280998
20.038834867800002 2.729061690852000 -7.320865382719000
20.038834867800002 2.729061690852000 3.000887617280999
20.038834867800002 2.729061690852000 13.322640617280999
20.038834867800002 10.219425690851999 -7.320865382719000
20.038834867800002 10.219425690851999 3.000887617280999
20.038834867800002 10.219425690851999 13.322640617280999
20.038834867800002 17.709789690851999 -7.320865382719000
20.038834867800002 17.709789690851999 3.000887617280999
20.038834867800002 17.709789690851999 13.322640617280999
0.695427990413000 0.106385639892000 1.793457333005000
0.695427990413000 0.106385639892000 12.115210333004999
0.695427990413000 0.106385639892000 22.436963333005000
0.695427990413000 7.596749639892000 1.793457333005000
0.695427990413000 7.596749639892000 12.115210333004999
0.695427990413000 7.596749639892000 22.436963333005000
0.695427990413000 15.087113639891999 1.793457333005000
0.695427990413000 15.087113639891999 12.115210333004999
0.695427990413000 15.087113639891999 22.436963333005000
9.417824990413001 0.106385639892000 -1.327431666995000
9.417824990413001 0.106385639892000 8.994321333004999
9.417824990413001 0.106385639892000 19.316074333004998
9.417824990413001 7.596749639892000 -1.327431666995000
9.417824990413001 7.596749639892000 8.994321333004999
9.417824990413001 7.596749639892000 19.316074333004998
9.417824990413001 15.087113639891999 -1.327431666995000
9.417824990413001 15.087113639891999 8.994321333004999
9.417824990413001 15.087113639891999 19.316074333004998
18.140221990413000 0.106385639892000 -4.448320666995000
18.140221990413000 0.106385639892000 5.873432333004999
18.140221990413000 0.106385639892000 16.195185333005000
18.140221990413000 7.596749639892000 -4.448320666995000
18.140221990413000 7.596749639892000 5.873432333004999
18.140221990413000 7.596749639892000 16.195185333005000
18.140221990413000 15.087113639891999 -4.448320666995000
18.140221990413000 15.087113639891999 5.873432333004999
18.140221990413000 15.087113639891999 16.195185333005000
2.777978775736000 1.034816257692000 1.578535126111000
2.777978775736000 1.034816257692000 11.900288126110999
2.777978775736000 1.034816257692000 22.222041126110998
2.777978775736000 8.525180257692000 1.578535126111000
2.777978775736000 8.525180257692000 11.900288126110999
2.777978775736000 8.525180257692000 22.222041126110998
2.777978775736000 16.015544257692000 1.578535126111000
2.777978775736000 16.015544257692000 11.900288126110999
2.777978775736000 16.015544257692000 22.222041126110998
11.500375775736000 1.034816257692000 -1.542353873889000
11.500375775736000 1.034816257692000 8.779399126110999
11.500375775736000 1.034816257692000 19.101152126110996
11.500375775736000 8.525180257692000 -1.542353873889000
11.500375775736000 8.525180257692000 8.779399126110999
11.500375775736000 8.525180257692000 19.101152126110996
11.500375775736000 16.015544257692000 -1.542353873889000
11.500375775736000 16.015544257692000 8.779399126110999
11.500375775736000 16.015544257692000 19.101152126110996
20.222772775736001 1.034816257692000 -4.663242873889000
20.222772775736001 1.034816257692000 5.658510126111000
20.222772775736001 1.034816257692000 15.980263126110998
20.222772775736001 8.525180257692000 -4.663242873889000
20.222772775736001 8.525180257692000 5.658510126111000
20.222772775736001 8.525180257692000 15.980263126110998
20.222772775736001 16.015544257692000 -4.663242873889000
20.222772775736001 16.015544257692000 5.658510126111000
20.222772775736001 16.015544257692000 15.980263126110998
3.324611395726000 0.366518491248000 0.290783684045000
3.324611395726000 0.366518491248000 10.612536684044999
3.324611395726000 0.366518491248000 20.934289684044998
3.324611395726000 7.856882491247999 0.290783684045000
3.324611395726000 7.856882491247999 10.612536684044999
3.324611395726000 7.856882491247999 20.934289684044998
3.324611395726000 15.347246491247999 0.290783684045000
3.324611395726000 15.347246491247999 10.612536684044999
3.324611395726000 15.347246491247999 20.934289684044998
12.047008395726001 0.366518491248000 -2.830105315955000
12.047008395726001 0.366518491248000 7.491647684044999
12.047008395726001 0.366518491248000 17.813400684044996
12.047008395726001 7.856882491247999 -2.830105315955000
12.047008395726001 7.856882491247999 7.491647684044999
12.047008395726001 7.856882491247999 17.813400684044996
12.047008395726001 15.347246491247999 -2.830105315955000
12.047008395726001 15.347246491247999 7.491647684044999
12.047008395726001 15.347246491247999 17.813400684044996
20.769405395726000 0.366518491248000 -5.950994315955001
20.769405395726000 0.366518491248000 4.370758684044999
20.769405395726000 0.366518491248000 14.692511684044998
20.769405395726000 7.856882491247999 -5.950994315955001
20.769405395726000 7.856882491247999 4.370758684044999
20.769405395726000 7.856882491247999 14.692511684044998
20.769405395726000 15.347246491247999 -5.950994315955001
20.769405395726000 15.347246491247999 4.370758684044999
20.769405395726000 15.347246491247999 14.692511684044998
0.402442675183000 1.538580688512000 2.444329371721000
0.402442675183000 1.538580688512000 12.766082371721000
0.402442675183000 1.538580688512000 23.087835371720999
0.402442675183000 9.028944688511999 2.444329371721000
0.402442675183000 9.028944688511999 12.766082371721000
0.402442675183000 9.028944688511999 23.087835371720999
0.402442675183000 16.519308688511998 2.444329371721000
0.402442675183000 16.519308688511998 12.766082371721000
0.402442675183000 16.519308688511998 23.087835371720999
9.124839675183001 1.538580688512000 -0.676559628279000
9.124839675183001 1.538580688512000 9.645193371721000
9.124839675183001 1.538580688512000 19.966946371720997
9.124839675183001 9.028944688511999 -0.676559628279000
9.124839675183001 9.028944688511999 9.645193371721000
9.124839675183001 9.028944688511999 19.966946371720997
9.124839675183001 16.519308688511998 -0.676559628279000
9.124839675183001 16.519308688511998 9.645193371721000
9.124839675183001 16.519308688511998 19.966946371720997
17.847236675183002 1.538580688512000 -3.797448628279000
17.847236675183002 1.538580688512000 6.524304371721000
17.847236675183002 1.538580688512000 16.846057371720999
17.847236675183002 9.028944688511999 -3.797448628279000
17.847236675183002 9.028944688511999 6.524304371721000
17.847236675183002 9.028944688511999 16.846057371720999
17.847236675183002 16.519308688511998 -3.797448628279000
17.847236675183002 16.519308688511998 6.524304371721000
17.847236675183002 16.519308688511998 16.846057371720999
1.366040761361000 1.077915812148000 6.741564578777999
1.366040761361000 1.077915812148000 17.063317578777998
1.366040761361000 1.077915812148000 27.385070578777999
1.366040761361000 8.568279812147999 6.741564578777999
1.366040761361000 8.568279812147999 17.063317578777998
1.366040761361000 8.568279812147999 27.385070578777999
1.366040761361000 16.058643812147999 6.741564578777999
1.366040761361000 16.058643812147999 17.063317578777998
1.366040761361000 16.058643812147999 27.385070578777999
10.088437761361000 1.077915812148000 3.620675578777999
10.088437761361000 1.077915812148000 13.942428578777999
10.088437761361000 1.077915812148000 24.264181578777997
10.088437761361000 8.568279812147999 3.620675578777999
10.088437761361000 8.568279812147999 13.942428578777999
10.088437761361000 8.568279812147999 24.264181578777997
10.088437761361000 16.058643812147999 3.620675578777999
10.088437761361000 16.058643812147999 13.942428578777999
10.088437761361000 16.058643812147999 24.264181578777997
18.810834761361001 1.077915812148000 0.499786578777999
18.810834761361001 1.077915812148000 10.821539578777998
18.810834761361001 1.077915812148000 21.143292578777999
18.810834761361001 8.568279812147999 0.499786578777999
18.810834761361001 8.568279812147999 10.821539578777998
18.810834761361001 8.568279812147999 21.143292578777999
18.810834761361001 16.058643812147999 0.499786578777999
18.810834761361001 16.058643812147999 10.821539578777998
18.810834761361001 16.058643812147999 21.143292578777999
2.200634595909000 -0.055885605804000 6.083500709229999
2.200634595909000 -0.055885605804000 16.405253709229999
2.200634595909000 -0.055885605804000 26.727006709229997
2.200634595909000 7.434478394196000 6.083500709229999
2.200634595909000 7.434478394196000 16.405253709229999
2.200634595909000 7.434478394196000 26.727006709229997
2.200634595909000 14.924842394195998 6.083500709229999
2.200634595909000 14.924842394195998 16.405253709229999
2.200634595909000 14.924842394195998 26.727006709229997
10.923031595909000 -0.055885605804000 2.962611709229999
10.923031595909000 -0.055885605804000 13.284364709229997
10.923031595909000 -0.055885605804000 23.606117709229995
10.923031595909000 7.434478394196000 2.962611709229999
10.923031595909000 7.434478394196000 13.284364709229997
10.923031595909000 7.434478394196000 23.606117709229995
10.923031595909000 14.924842394195998 2.962611709229999
10.923031595909000 14.924842394195998 13.284364709229997
10.923031595909000 14.924842394195998 23.606117709229995
19.645428595909003 -0.055885605804000 -0.158277290770001
19.645428595909003 -0.055885605804000 10.163475709229999
19.645428595909003 -0.055885605804000 20.485228709229997
19.645428595909003 7.434478394196000 -0.158277290770001
19.645428595909003 7.434478394196000 10.163475709229999
19.645428595909003 7.434478394196000 20.485228709229997
19.645428595909003 14.924842394195998 -0.158277290770001
19.645428595909003 14.924842394195998 10.163475709229999
19.645428595909003 14.924842394195998 20.485228709229997
3.307349772063000 1.617229510512000 7.480187810419000
3.307349772063000 1.617229510512000 17.801940810418998
3.307349772063000 1.617229510512000 28.123693810418999
3.307349772063000 9.107593510512000 7.480187810419000
3.307349772063000 9.107593510512000 17.801940810418998
3.307349772063000 9.107593510512000 28.123693810418999
3.307349772063000 16.597957510512000 7.480187810419000
3.307349772063000 16.597957510512000 17.801940810418998
3.307349772063000 16.597957510512000 28.123693810418999
12.029746772063001 1.617229510512000 4.359298810419000
12.029746772063001 1.617229510512000 14.681051810419000
12.029746772063001 1.617229510512000 25.002804810418997
12.029746772063001 9.107593510512000 4.359298810419000
12.029746772063001 9.107593510512000 14.681051810419000
12.029746772063001 9.107593510512000 25.002804810418997
12.029746772063001 16.597957510512000 4.359298810419000
12.029746772063001 16.597957510512000 14.681051810419000
12.029746772063001 16.597957510512000 25.002804810418997
20.752143772063000 1.617229510512000 1.238409810419000
20.752143772063000 1.617229510512000 11.560162810419000
20.752143772063000 1.617229510512000 21.881915810418999
20.752143772063000 9.107593510512000 1.238409810419000
20.752143772063000 9.107593510512000 11.560162810419000
20.752143772063000 9.107593510512000 21.881915810418999
20.752143772063000 16.597957510512000 1.238409810419000
20.752143772063000 16.597957510512000 11.560162810419000
20.752143772063000 16.597957510512000 21.881915810418999
0.254981831501000 3.077865471240000 6.618835459632999
0.254981831501000 3.077865471240000 16.940588459632998
0.254981831501000 3.077865471240000 27.262341459632999
0.254981831501000 10.568229471239999 6.618835459632999
0.254981831501000 10.568229471239999 16.940588459632998
0.254981831501000 10.568229471239999 27.262341459632999
0.254981831501000 18.058593471239998 6.618835459632999
0.254981831501000 18.058593471239998 16.940588459632998
0.254981831501000 18.058593471239998 27.262341459632999
8.977378831501001 3.077865471240000 3.497946459632999
8.977378831501001 3.077865471240000 13.819699459632998
8.977378831501001 3.077865471240000 24.141452459632994
8.977378831501001 10.568229471239999 3.497946459632999
8.977378831501001 10.568229471239999 13.819699459632998
8.977378831501001 10.568229471239999 24.141452459632994
8.977378831501001 18.058593471239998 3.497946459632999
8.977378831501001 18.058593471239998 13.819699459632998
8.977378831501001 18.058593471239998 24.141452459632994
17.699775831501000 3.077865471240000 0.377057459632999
17.699775831501000 3.077865471240000 10.698810459632998
17.699775831501000 3.077865471240000 21.020563459632996
17.699775831501000 10.568229471239999 0.377057459632999
17.699775831501000 10.568229471239999 10.698810459632998
17.699775831501000 10.568229471239999 21.020563459632996
17.699775831501000 18.058593471239998 0.377057459632999
17.699775831501000 18.058593471239998 10.698810459632998
17.699775831501000 18.058593471239998 21.020563459632996
-0.600798705360000 1.870636014996000 5.980718703626001
-0.600798705360000 1.870636014996000 16.302471703626001
-0.600798705360000 1.870636014996000 26.624224703625998
-0.600798705360000 9.361000014996000 5.980718703626001
-0.600798705360000 9.361000014996000 16.302471703626001
-0.600798705360000 9.361000014996000 26.624224703625998
-0.600798705360000 16.851364014995998 5.980718703626001
-0.600798705360000 16.851364014995998 16.302471703626001
-0.600798705360000 16.851364014995998 26.624224703625998
8.121598294640000 1.870636014996000 2.859829703626001
8.121598294640000 1.870636014996000 13.181582703626001
8.121598294640000 1.870636014996000 23.503335703626000
8.121598294640000 9.361000014996000 2.859829703626001
8.121598294640000 9.361000014996000 13.181582703626001
8.121598294640000 9.361000014996000 23.503335703626000
8.121598294640000 16.851364014995998 2.859829703626001
8.121598294640000 16.851364014995998 13.181582703626001
8.121598294640000 16.851364014995998 23.503335703626000
16.843995294640003 1.870636014996000 -0.261059296373999
16.843995294640003 1.870636014996000 10.060693703626001
16.843995294640003 1.870636014996000 20.382446703626002
16.843995294640003 9.361000014996000 -0.261059296373999
16.843995294640003 9.361000014996000 10.060693703626001
16.843995294640003 9.361000014996000 20.382446703626002
16.843995294640003 16.851364014995998 -0.261059296373999
16.843995294640003 16.851364014995998 10.060693703626001
16.843995294640003 16.851364014995998 20.382446703626002
4.706997929065001 1.893743787936000 8.119346280971000
4.706997929065001 1.893743787936000 18.441099280970999
4.706997929065001 1.893743787936000 28.762852280970996
4.706997929065001 9.384107787935999 8.119346280971000
4.706997929065001 9.384107787935999 18.441099280970999
4.706997929065001 9.384107787935999 28.762852280970996
4.706997929065001 16.874471787935999 8.119346280971000
4.706997929065001 16.874471787935999 18.441099280970999
4.706997929065001 16.874471787935999 28.762852280970996
13.429394929065001 1.893743787936000 4.998457280971000
13.429394929065001 1.893743787936000 15.320210280970999
13.429394929065001 1.893743787936000 25.641963280970998
13.429394929065001 9.384107787935999 4.998457280971000
13.429394929065001 9.384107787935999 15.320210280970999
13.429394929065001 9.384107787935999 25.641963280970998
13.429394929065001 16.874471787935999 4.998457280971000
13.429394929065001 16.874471787935999 15.320210280970999
13.429394929065001 16.874471787935999 25.641963280970998
22.151791929065002 1.893743787936000 1.877568280970999
22.151791929065002 1.893743787936000 12.199321280970999