DMC-ICE13 ice III; Cartesian 2x2x2 supercell
1.0
13.313921821198001 -0.010831971686000 -0.004125923254000
-0.011131227626000 13.118175662688000 -0.084340336672000
0.001656106246000 -0.088814674792000 14.904053762140000
H O
192 96
Cartesian
1.607156918922136 2.270449264150240 1.338872930386932
1.607984972045136 2.226041926754240 8.790899811456933
1.601591305109136 8.829537095494240 1.296702762050932
1.602419358232136 8.785129758098240 8.748729643120933
8.264117829521137 2.265033278307240 1.336809968759932
8.264945882644136 2.220625940911240 8.788836849829933
8.258552215708136 8.824121109651239 1.294639800423932
8.259380268831137 8.779713772255240 8.746666681493933
5.028886222129423 4.281665330357190 5.033918413229319
5.029714275252423 4.237257992961190 12.485945294299320
5.023320608316423 10.840753161701191 4.991748244893319
5.024148661439424 10.796345824305190 12.443775125963320
11.685847132728423 4.276249344514190 5.031855451602319
11.686675185851424 4.231842007118190 12.483882332672319
11.680281518915423 10.835337175858189 4.989685283266319
11.681109572038423 10.790929838462191 12.441712164336320
0.952210944035193 4.872580755154523 3.135141539668227
0.953038997158193 4.828173417758523 10.587168420738227
0.946645330222193 11.431668586498523 3.092971371332228
0.947473383345193 11.387261249102522 10.544998252402227
7.609171854634194 4.867164769311523 3.133078578041228
7.609999907757193 4.822757431915523 10.585105459111228
7.603606240821193 11.426252600655523 3.090908409705227
7.604434293944194 11.381845263259523 10.542935290775228
1.683107434129327 5.528796276596490 0.630077055640021
1.683935487252327 5.484388939200490 8.082103936710022
1.677541820316327 12.087884107940489 0.587906887304021
1.678369873439327 12.043476770544491 8.039933768374022
8.340068344728328 5.523380290753489 0.628014094013021
8.340896397851328 5.478972953357490 8.080040975083021
8.334502730915327 12.082468122097488 0.585843925677021
8.335330784038328 12.038060784701489 8.037870806747021
4.921649653848668 0.960847236165016 4.354656050760100
4.922477706971668 0.916439898769016 11.806682931830100
4.916084040035668 7.519935067509016 4.312485882424101
4.916912093158668 7.475527730113017 11.764512763494100
11.578610564447668 0.955431250322016 4.352593089133101
11.579438617570668 0.911023912926016 11.804619970203101
11.573044950634667 7.514519081666016 4.310422920797101
11.573873003757669 7.470111744270016 11.762449801867101
4.269862941817241 4.932981015096872 2.526262806698480
4.270690994940241 4.888573677700872 9.978289687768481
4.264297328004241 11.492068846440873 2.484092638362480
4.265125381127241 11.447661509044872 9.936119519432481
10.926823852416241 4.927565029253872 2.524199845071480
10.927651905539241 4.883157691857872 9.976226726141480
10.921258238603240 11.486652860597871 2.482029676735480
10.922086291726242 11.442245523201873 9.934056557805480
2.437323558545896 5.928089919435877 6.762319200169677
2.438151611668896 5.883682582039877 14.214346081239677
2.431757944732896 12.487177750779876 6.720149031833677
2.432585997855896 12.442770413383876 14.172175912903677
9.094284469144895 5.922673933592876 6.760256238542677
9.095112522267897 5.878266596196877 14.212283119612678
9.088718855331896 12.481761764936877 6.718086070206677
9.089546908454896 12.437354427540877 14.170112951276678
4.191355586169341 0.492021262239980 3.029976949357127
4.192183639292341 0.447613924843980 10.482003830427127
4.185789972356341 7.051109093583980 2.987806781021127
4.186618025479341 7.006701756187980 10.439833662091127
10.848316496768341 0.486605276396980 3.027913987730127
10.849144549891342 0.442197939000980 10.479940868800128
10.842750882955341 7.045693107740980 2.985743819394127
10.843578936078341 7.001285770344980 10.437770700464128
2.807035200883808 0.839369047463731 4.910703753189856
2.807863254006808 0.794961710067731 12.362730634259856
2.801469587070808 7.398456878807730 4.868533584853856
2.802297640193808 7.354049541411731 12.320560465923856
9.463996111482809 0.833953061620731 4.908640791562856
9.464824164605808 0.789545724224731 12.360667672632857
9.458430497669807 7.393040892964731 4.866470623226856
9.459258550792809 7.348633555568730 12.318497504296857
3.814878772139404 5.604137435096191 1.164399186715417
3.815706825262404 5.559730097700191 8.616426067785417
3.809313158326404 12.163225266440190 1.122229018379417
3.810141211449404 12.118817929044191 8.574255899449417
10.471839682738404 5.598721449253190 1.162336225088417
10.472667735861403 5.554314111857191 8.614363106158418
10.466274068925404 12.157809280597190 1.120166056752417
10.467102122048404 12.113401943201190 8.572192937822418
6.591127491642291 4.266247675811862 4.983727188703718
6.591955544765290 4.221840338415863 12.435754069773719
6.585561877829290 10.825335507155863 4.941557020367719
6.586389930952291 10.780928169759862 12.393583901437719
13.248088402241290 4.260831689968862 4.981664227076719
13.248916455364292 4.216424352572862 12.433691108146718
13.242522788428291 10.819919521312862 4.939494058740719
13.243350841551290 10.775512183916863 12.391520939810718
0.948972995053513 3.313443772164618 3.155316159327225
0.949801048176513 3.269036434768618 10.607343040397225
0.943407381240513 9.872531603508618 3.113145990991225
0.944235434363513 9.828124266112617 10.565172872061225
7.605933905652513 3.308027786321618 3.153253197700225
7.606761958775513 3.263620448925618 10.605280078770225
7.600368291839513 9.867115617665618 3.111083029364225
7.601196344962514 9.822708280269618 10.563109910434225
5.720653473613848 3.235884284264129 6.849739676630585
5.721481526736848 3.191476946868129 14.301766557700585
5.715087859800848 9.794972115608129 6.807569508294585
5.715915912923848 9.750564778212128 14.259596389364585
12.377614384212848 3.230468298421129 6.847676715003585
12.378442437335849 3.186060961025129 14.299703596073584
12.372048770399848 9.789556129765128 6.805506546667585
12.372876823522848 9.745148792369129 14.257533427737584
1.277227997361365 0.745990967287486 5.465016557433615
1.278056050484365 0.701583629891486 12.917043438503615
1.271662383548365 7.305078798631486 5.422846389097615
1.272490436671365 7.260671461235487 12.874873270167615
7.934188907960365 0.740574981444486 5.462953595806615
7.935016961083365 0.696167644048486 12.914980476876615
7.928623294147365 7.299662812788486 5.420783427470615
7.929451347270366 7.255255475392486 12.872810308540615
5.913955155908070 1.162483679865445 6.299692013700315
5.914783209031070 1.118076342469445 13.751718894770315
5.908389542095070 7.721571511209445 6.257521845364315
5.909217595218070 7.677164173813445 13.709548726434315
12.570916066507070 1.157067694022445 6.297629052073315
12.571744119630070 1.112660356626445 13.749655933143316
12.565350452694069 7.716155525366444 6.255458883737315
12.566178505817071 7.671748187970445 13.707485764807316
2.585688987267184 2.018316853128078 6.847942541906363
2.586517040390184 1.973909515732078 14.299969422976364
2.580123373454184 8.577404684472079 6.805772373570363
2.580951426577184 8.532997347076078 14.257799254640364
9.242649897866185 2.012900867285078 6.845879580279363
9.243477950989185 1.968493529889078 14.297906461349363
9.237084284053184 8.571988698629077 6.803709411943363
9.237912337176185 8.527581361233079 14.255736293013364
2.665656581985920 3.536520263407338 7.402243429115953
2.666484635108920 3.492112926011337 14.854270310185953
2.660090968172920 10.095608094751338 7.360073260779953
2.660919021295920 10.051200757355337 14.812100141849953
9.322617492584921 3.531104277564338 7.400180467488953
9.323445545707919 3.486696940168338 14.852207348558952
9.317051878771920 10.090192108908337 7.358010299152953
9.317879931894922 10.045784771512338 14.810037180222952
3.970688547581097 2.860986200816204 3.662305581589252
3.971516600704097 2.816578863420204 11.114332462659252
3.965122933768098 9.420074032160203 3.620135413253252
3.965950986891097 9.375666694764204 11.072162294323252
10.627649458180098 2.855570214973204 3.660242619962252
10.628477511303098 2.811162877577204 11.112269501032252
10.622083844367097 9.414658046317204 3.618072451626252
10.622911897490098 9.370250708921203 11.070099332696252
0.645519632720922 0.390885887903434 1.999756792624849
0.646347685843922 0.346478550507434 9.451783673694850
0.639954018907922 6.949973719247433 1.957586624288849
0.640782072030922 6.905566381851433 9.409613505358850
7.302480543319922 0.385469902060434 1.997693830997849
7.303308596442921 0.341062564664434 9.449720712067849
7.296914929506922 6.944557733404433 1.955523662661849
7.297742982629922 6.900150396008433 9.407550543731849
2.867155763857479 3.971633184996653 3.890377948613477
2.867983816980479 3.927225847600653 11.342404829683478
2.861590150044479 10.530721016340653 3.848207780277477
2.862418203167478 10.486313678944652 11.300234661347478
9.524116674456479 3.966217199153653 3.888314986986477
9.524944727579479 3.921809861757653 11.340341868056477
9.518551060643478 10.525305030497652 3.846144818650477
9.519379113766480 10.480897693101653 11.298171699720477
0.043898113102928 2.317868442205322 1.298589220847530
0.044726166225928 2.273461104809322 8.750616101917529
0.038332499289928 8.876956273549322 1.256419052511530
0.039160552412928 8.832548936153323 8.708445933581530
6.700859023701929 2.312452456362322 1.296526259220530
6.701687076824928 2.268045118966322 8.748553140290531
6.695293409888929 8.871540287706321 1.254356090884530
6.696121463011929 8.827132950310322 8.706382971954531
4.585615055558876 2.514997060642050 0.175048520247385
4.586443108681876 2.470589723246050 7.627075401317385
4.580049441745876 9.074084891986050 0.132878351911385
4.580877494868877 9.029677554590050 7.584905232981385
11.242575966157876 2.509581074799050 0.172985558620385
11.243404019280877 2.465173737403050 7.625012439690385
11.237010352344877 9.068668906143049 0.130815390284385
11.237838405467876 9.024261568747050 7.582842271354385
6.198553166289520 5.825128218132166 1.734598006083957
6.199381219412520 5.780720880736166 9.186624887153958
6.192987552476520 12.384216049476166 1.692427837747957
6.193815605599521 12.339808712080167 9.144454718817958
12.855514076888522 5.819712232289166 1.732535044456957
12.856342130011519 5.775304894893166 9.184561925526957
12.849948463075521 12.378800063633165 1.690364876120957
12.850776516198522 12.334392726237166 9.142391757190957
5.994785094367153 6.212281218873399 5.673613568775101
5.995613147490152 6.167873881477400 13.125640449845100
5.989219480554152 12.771369050217398 5.631443400439101
5.990047533677153 12.726961712821399 13.083470281509101
12.651746004966153 6.206865233030399 5.671550607148101
12.652574058089153 6.162457895634399 13.123577488218102
12.646180391153152 12.765953064374399 5.629380438812102
12.647008444276153 12.721545726978398 13.081407319882102
0.803799032453221 2.108692441332798 1.913006432176909
0.804627085576221 2.064285103936798 9.365033313246910
0.798233418640221 8.667780272676797 1.870836263840909
0.799061471763221 8.623372935280798 9.322863144910910
7.460759943052222 2.103276455489798 1.910943470549909
7.461587996175221 2.058869118093798 9.362970351619909
7.455194329239221 8.662364286833798 1.868773302213909
7.456022382362222 8.617956949437797 9.320800183283909
5.828457890205881 4.463713617827151 5.601367994117539
5.829285943328880 4.419306280431152 13.053394875187539
5.822892276392881 11.022801449171151 5.559197825781539
5.823720329515881 10.978394111775152 13.011224706851539
12.485418800804881 4.458297631984151 5.599305032490539
12.486246853927881 4.413890294588152 13.051331913560539
12.479853186991882 11.017385463328150 5.557134864154539
12.480681240114881 10.972978125932151 13.009161745224539
1.131350730387112 4.101122493404018 3.744846655753434
1.132178783510112 4.056715156008019 11.196873536823434
1.125785116574112 10.660210324748018 3.702676487417434
1.126613169697112 10.615802987352019 11.154703368487434
7.788311640986112 4.095706507561018 3.742783694126434
7.789139694109112 4.051299170165018 11.194810575196435
7.782746027173113 10.654794338905017 3.700613525790434
7.783574080296113 10.610387001509018 11.152640406860435
5.566926993885224 2.493036995627139 -0.006462516846078
5.567755047008224 2.448629658231139 7.445564364223922
5.561361380072224 9.052124826971138 -0.048632685182078
5.562189433195225 9.007717489575139 7.403394195887922
12.223887904484226 2.487621009784139 -0.008525478473078
12.224715957607224 2.443213672388139 7.443501402596922
12.218322290671225 9.046708841128138 -0.050695646809078
12.219150343794226 9.002301503732138 7.401331234260923
2.474657498228427 5.319258745297374 0.059396980470644
2.475485551351427 5.274851407901374 7.511423861540644
2.469091884415427 11.878346576641373 0.017226812134644
2.469919937538426 11.833939239245375 7.469253693204644
9.131618408827427 5.313842759454373 0.057334018843644
9.132446461950426 5.269435422058374 7.509360899913644
9.126052795014427 11.872930590798372 0.015163850507644
9.126880848137427 11.828523253402373 7.467190731577644
4.120827782980055 1.140476323048771 3.783975212800627
4.121655836103055 1.096068985652771 11.236002093870628
4.115262169167055 7.699564154392771 3.741805044464627
4.116090222290056 7.655156816996771 11.193831925534628
10.777788693579055 1.135060337205771 3.781912251173627
10.778616746702056 1.090652999809771 11.233939132243627
10.772223079766055 7.694148168549771 3.739742082837627
10.773051132889055 7.649740831153771 11.191768963907627
2.238271787387903 0.756292077221798 5.724582689713744
2.239099840510903 0.711884739825798 13.176609570783743
2.232706173574904 7.315379908565798 5.682412521377744
2.233534226697903 7.270972571169798 13.134439402447743
8.895232697986904 0.750876091378798 5.722519728086744
8.896060751109903 0.706468753982798 13.174546609156744
8.889667084173904 7.309963922722797 5.680349559750744
8.890495137296904 7.265556585326798 13.132376440820744
4.469228689284024 5.694069112092953 1.910408117151238
4.470056742407023 5.649661774696954 9.362434998221238
4.463663075471024 12.253156943436952 1.868237948815238
4.464491128594024 12.208749606040953 9.320264829885238
11.126189599883023 5.688653126249953 1.908345155524238
11.127017653006025 5.644245788853953 9.360372036594239
11.120623986070024 12.247740957593953 1.866174987188238
11.121452039193024 12.203333620197952 9.318201868258239
2.844504098161719 2.628005971032589 0.177966381687766
2.845332151284719 2.583598633636589 7.629993262757766
2.838938484348720 9.187093802376589 0.135796213351766
2.839766537471719 9.142686464980589 7.587823094421767
9.501465008760720 2.622589985189589 0.175903420060766
9.502293061883719 2.578182647793589 7.627930301130767
9.495899394947720 9.181677816533588 0.133733251724766
9.496727448070720 9.137270479137589 7.585760132794767
3.853036730918245 3.841891355412641 3.800863425474702
3.853864784041245 3.797484018016640 11.252890306544703
3.847471117105246 10.400979186756640 3.758693257138702
3.848299170228245 10.356571849360641 11.210720138208703
10.509997641517245 3.836475369569641 3.798800463847702
10.510825694640246 3.792068032173641 11.250827344917703
10.504432027704246 10.395563200913641 3.756630295511702
10.505260080827245 10.351155863517640 11.208657176581703
0.522998973818166 5.962553607709647 1.852947703199117
0.523827026941166 5.918146270313647 9.304974584269116
0.517433360005166 12.521641439053646 1.810777534863117
0.518261413128166 12.477234101657647 9.262804415933116
7.179959884417166 5.957137621866647 1.850884741572117
7.180787937540166 5.912730284470647 9.302911622642117
7.174394270604166 12.516225453210646 1.808714573236117
7.175222323727167 12.471818115814646 9.260741454306118
6.172625251238320 0.613795165350727 5.507181285243314
6.173453304361320 0.569387827954727 12.959208166313314
6.167059637425320 7.172882996694726 5.465011116907315
6.167887690548320 7.128475659298727 12.917037997977314
12.829586161837319 0.608379179507727 5.505118323616315
12.830414214960321 0.563971842111727 12.957145204686315
12.824020548024320 7.167467010851726 5.462948155280315
12.824848601147320 7.123059673455726 12.914975036350315
