DMC-ICE13 ice IV; Cartesian 4x4x4 supercell
1.0
31.127120641207998 0.498787816364000 0.636131705960000
11.064041313352000 29.098685630923999 0.636131741660000
11.295850685480000 7.924136295440000 28.068776395815998
H O
2048 1024
Cartesian
7.300011330030438 7.721652189439383 6.405487212472605
10.123974001400438 9.702686263299384 13.422681311426604
12.947936672770439 11.683720337159382 20.439875410380605
15.771899344140438 13.664754411019384 27.457069509334602
10.066021658368438 14.996323597170383 6.564520147887605
12.889984329738438 16.977357671030383 13.581714246841605
15.713947001108439 18.958391744890381 20.598908345795603
18.537909672478438 20.939425818750383 27.616102444749600
12.832031986706438 22.270995004901383 6.723553083302605
15.655994658076438 24.252029078761382 13.740747182256605
18.479957329446435 26.233063152621384 20.757941281210606
21.303920000816440 28.214097226481382 27.775135380164603
15.598042315044438 29.545666412632382 6.882586018717605
18.422004986414436 31.526700486492381 13.899780117671604
21.245967657784441 33.507734560352382 20.916974216625604
24.069930329154438 35.488768634212384 27.934168315579601
15.081791490332439 7.846349143530383 6.564520138962605
17.905754161702440 9.827383217390384 13.581714237916604
20.729716833072438 11.808417291250382 20.598908336870604
23.553679504442435 13.789451365110384 27.616102435824601
17.847801818670440 15.121020551261383 6.723553074377604
20.671764490040438 17.102054625121383 13.740747173331604
23.495727161410436 19.083088698981381 20.757941272285603
26.319689832780440 21.064122772841383 27.775135371239603
20.613812147008439 22.395691958992384 6.882586009792605
23.437774818378436 24.376726032852382 13.899780108746604
26.261737489748434 26.357760106712380 20.916974207700605
29.085700161118439 28.338794180572382 27.934168306654602
23.379822475346437 29.670363366723382 7.041618945207604
26.203785146716434 31.651397440583381 14.058813044161603
29.027747818086439 33.632431514443383 21.076007143115604
31.851710489456437 35.613465588303384 28.093201242069600
22.863571650634437 7.971046097621383 6.723553065452605
25.687534322004439 9.952080171481382 13.740747164406605
28.511496993374436 11.933114245341383 20.757941263360603
31.335459664744434 13.914148319201384 27.775135362314600
25.629581978972439 15.245717505352383 6.882586000867605
28.453544650342437 17.226751579212383 13.899780099821605
31.277507321712434 19.207785653072381 20.916974198775605
34.101469993082439 21.188819726932383 27.934168297729602
28.395592307310437 22.520388913083384 7.041618936282605
31.219554978680435 24.501422986943382 14.058813035236604
34.043517650050440 26.482457060803380 21.076007134190604
36.867480321420437 28.463491134663382 28.093201233144601
31.161602635648435 29.795060320814382 7.200651871697604
33.985565307018440 31.776094394674381 14.217845970651604
36.809527978388438 33.757128468534383 21.235040069605603
39.633490649758436 35.738162542394385 28.252234168559603
30.645351810936440 8.095743051712383 6.882585991942605
33.469314482306437 10.076777125572383 13.899780090896606
36.293277153676435 12.057811199432383 20.916974189850603
39.117239825046440 14.038845273292385 27.934168288804603
33.411362139274438 15.370414459443383 7.041618927357605
36.235324810644435 17.351448533303383 14.058813026311604
39.059287482014440 19.332482607163382 21.076007125265605
41.883250153384438 21.313516681023383 28.093201224219602
36.177372467612436 22.645085867174384 7.200651862772605
39.001335138982441 24.626119941034382 14.217845961726605
41.825297810352438 26.607154014894380 21.235040060680603
44.649260481722436 28.588188088754382 28.252234159634600
38.943382795950434 29.919757274905383 7.359684798187605
41.767345467320439 31.900791348765381 14.376878897141605
44.591308138690437 33.881825422625383 21.394072996095606
47.415270810060434 35.862859496485385 28.411267095049602
8.353145553389826 8.603171245885385 5.551761480916457
11.177108224759825 10.584205319745385 12.568955579870456
14.001070896129825 12.565239393605385 19.586149678824455
16.825033567499826 14.546273467465385 26.603343777778456
11.119155881727826 15.877842653616383 5.710794416331457
13.943118553097825 17.858876727476385 12.727988515285457
16.767081224467827 19.839910801336384 19.745182614239457
19.591043895837828 21.820944875196385 26.762376713193454
13.885166210065826 23.152514061347382 5.869827351746457
16.709128881435824 25.133548135207384 12.887021450700455
19.533091552805825 27.114582209067386 19.904215549654456
22.357054224175826 29.095616282927384 26.921409648608456
16.651176538403824 30.427185469078385 6.028860287161457
19.475139209773825 32.408219542938383 13.046054386115458
22.299101881143827 34.389253616798385 20.063248485069455
25.123064552513828 36.370287690658387 27.080442584023455
16.134925713691825 8.727868199976385 5.710794407406457
18.958888385061826 10.708902273836385 12.727988506360457
21.782851056431824 12.689936347696385 19.745182605314454
24.606813727801825 14.670970421556385 26.762376704268455
18.900936042029826 16.002539607707384 5.869827342821456
21.724898713399824 17.983573681567385 12.887021441775456
24.548861384769825 19.964607755427384 19.904215540729457
27.372824056139827 21.945641829287382 26.921409639683457
21.666946370367825 23.277211015438382 6.028860278236457
24.490909041737826 25.258245089298384 13.046054377190456
27.314871713107824 27.239279163158383 20.063248476144455
30.138834384477825 29.220313237018384 27.080442575098456
24.432956698705826 30.551882423169385 6.187893213651456
27.256919370075824 32.532916497029383 13.205087312605457
30.080882041445825 34.513950570889385 20.222281411559457
32.904844712815830 36.494984644749380 27.239475510513454
23.916705873993827 8.852565154067385 5.869827333896457
26.740668545363825 10.833599227927385 12.887021432850457
29.564631216733826 12.814633301787385 19.904215531804457
32.388593888103827 14.795667375647385 26.921409630758454
26.682716202331825 16.127236561798384 6.028860269311457
29.506678873701826 18.108270635658386 13.046054368265455
32.330641545071828 20.089304709518384 20.063248467219456
35.154604216441825 22.070338783378382 27.080442566173456
29.448726530669827 23.401907969529383 6.187893204726457
32.272689202039828 25.382942043389384 13.205087303680457
35.096651873409826 27.363976117249383 20.222281402634454
37.920614544779824 29.345010191109385 27.239475501588455
32.214736859007829 30.676579377260385 6.346926140141457
35.038699530377826 32.657613451120383 13.364120239095456
37.862662201747824 34.638647524980385 20.381314338049457
40.686624873117822 36.619681598840387 27.398508437003457
31.698486034295826 8.977262108158385 6.028860260386457
34.522448705665823 10.958296182018385 13.046054359340456
37.346411377035821 12.939330255878385 20.063248458294456
40.170374048405826 14.920364329738385 27.080442557248457
34.464496362633824 16.251933515889384 6.187893195801457
37.288459034003822 18.232967589749386 13.205087294755456
40.112421705373826 20.214001663609384 20.222281393709455
42.936384376743831 22.195035737469382 27.239475492663455
37.230506690971822 23.526604923620383 6.346926131216457
40.054469362341827 25.507638997480385 13.364120230170457
42.878432033711832 27.488673071340383 20.381314329124457
45.702394705081829 29.469707145200385 27.398508428078454
39.996517019309820 30.801276331351385 6.505959066631457
42.820479690679832 32.782310405211383 13.523153165585455
45.644442362049830 34.763344479071385 20.540347264539456
48.468405033419828 36.744378552931380 27.557541363493456
3.513558887075504 2.156045255155059 4.810467846266175
6.337521558445504 4.137079329015059 11.827661945220175
9.161484229815503 6.118113402875059 18.844856044174175
11.985446901185504 8.099147476735059 25.862050143128172
6.279569215413504 9.430716662886059 4.969500781681176
9.103531886783504 11.411750736746059 11.986694880635175
11.927494558153505 13.392784810606058 19.003888979589174
14.751457229523504 15.373818884466059 26.021083078543171
9.045579543751504 16.705388070617058 5.128533717096175
11.869542215121504 18.686422144477056 12.145727816050176
14.693504886491503 20.667456218337058 19.162921915004176
17.517467557861504 22.648490292197060 26.180116013958173
11.811589872089504 23.980059478348061 5.287566652511176
14.635552543459504 25.961093552208055 12.304760751465174
17.459515214829505 27.942127626068057 19.321954850419175
20.283477886199506 29.923161699928059 26.339148949373172
11.295339047377503 2.280742209246059 4.969500772756176
14.119301718747504 4.261776283106059 11.986694871710174
16.943264390117506 6.242810356966059 19.003888970664175
19.767227061487503 8.223844430826059 26.021083069618172
14.061349375715505 9.555413616977059 5.128533708171175
16.885312047085506 11.536447690837058 12.145727807125175
19.709274718455504 13.517481764697058 19.162921906079173
22.533237389825505 15.498515838557058 26.180116005033174
16.827359704053503 16.830085024708058 5.287566643586175
19.651322375423504 18.811119098568057 12.304760742540175
22.475285046793502 20.792153172428058 19.321954841494176
25.299247718163503 22.773187246288060 26.339148940448172
19.593370032391505 24.104756432439061 5.446599579001175
22.417332703761502 26.085790506299055 12.463793677955174
25.241295375131504 28.066824580159057 19.480987776909174
28.065258046501505 30.047858654019059 26.498181875863171
19.077119207679502 2.405439163337058 5.128533699246176
21.901081879049503 4.386473237197059 12.145727798200175
24.725044550419504 6.367507311057059 19.162921897154174
27.549007221789502 8.348541384917059 26.180115996108171
21.843129536017504 9.680110571068059 5.287566634661175
24.667092207387505 11.661144644928058 12.304760733615176
27.491054878757502 13.642178718788058 19.321954832569176
30.315017550127504 15.623212792648058 26.339148931523173
24.609139864355505 16.954781978799058 5.446599570076176
27.433102535725503 18.935816052659057 12.463793669030174
30.257065207095504 20.916850126519059 19.480987767984175
33.081027878465505 22.897884200379060 26.498181866938172
27.375150192693503 24.229453386530061 5.605632505491175
30.199112864063505 26.210487460390056 12.622826604445175
33.023075535433506 28.191521534250057 19.640020703399173
35.847038206803504 30.172555608110059 26.657214802353174
26.858899367981504 2.530136117428059 5.287566625736176
29.682862039351505 4.511170191288059 12.304760724690176
32.506824710721503 6.492204265148059 19.321954823644173
35.330787382091501 8.473238339008059 26.339148922598174
29.624909696319506 9.804807525159060 5.446599561151175
32.448872367689503 11.785841599019058 12.463793660105175
35.272835039059501 13.766875672879058 19.480987759059175
38.096797710429506 15.747909746739058 26.498181858013172
32.390920024657504 17.079478932890058 5.605632496566176
35.214882696027502 19.060513006750057 12.622826595520175
38.038845367397506 21.041547080610059 19.640020694474174
40.862808038767504 23.022581154470060 26.657214793428171
35.156930352995502 24.354150340621061 5.764665431981175
37.980893024365507 26.335184414481056 12.781859530935176
40.804855695735505 28.316218488341057 19.799053629889176
43.628818367105502 30.297252562201059 26.816247728843173
7.859214734121380 6.607863845664465 4.793335269306230
10.683177405491380 8.588897919524465 11.810529368260230
13.507140076861379 10.569931993384465 18.827723467214227
16.331102748231380 12.550966067244465 25.844917566168228
10.625225062459380 13.882535253395464 4.952368204721230
13.449187733829380 15.863569327255465 11.969562303675229
16.273150405199381 17.844603401115464 18.986756402629229
19.097113076569379 19.825637474975466 26.003950501583226
13.391235390797380 21.157206661126466 5.111401140136230
16.215198062167381 23.138240734986464 12.128595239090229
19.039160733537379 25.119274808846466 19.145789338044231
21.863123404907380 27.100308882706464 26.162983436998228
16.157245719135382 28.431878068857465 5.270434075551230
18.981208390505380 30.412912142717463 12.287628174505230
21.805171061875381 32.393946216577461 19.304822273459230
24.629133733245382 34.374980290437463 26.322016372413227
15.640994894423379 6.732560799755465 4.952368195796230
18.464957565793380 8.713594873615465 11.969562294750229
21.288920237163381 10.694628947475465 18.986756393704226
24.112882908533379 12.675663021335465 26.003950492658227
18.407005222761381 14.007232207486464 5.111401131211229
21.230967894131382 15.988266281346464 12.128595230165228
24.054930565501380 17.969300355206464 19.145789329119228
26.878893236871381 19.950334429066466 26.162983428073229
21.173015551099379 21.281903615217466 5.270434066626230
23.996978222469380 23.262937689077464 12.287628165580230
26.820940893839378 25.243971762937463 19.304822264534231
29.644903565209379 27.225005836797465 26.322016363488228
23.939025879437381 28.556575022948465 5.429467002041230
26.762988550807378 30.537609096808463 12.446661100995229
29.586951222177380 32.518643170668469 19.463855199949229
32.410913893547381 34.499677244528463 26.481049298903226
23.422775054725378 6.857257753846465 5.111401122286230
26.246737726095379 8.838291827706465 12.128595221240229
29.070700397465380 10.819325901566465 19.145789320194229
31.894663068835378 12.800359975426465 26.162983419148226
26.188785383063379 14.131929161577464 5.270434057701229
29.012748054433381 16.112963235437462 12.287628156655229
31.836710725803378 18.093997309297464 19.304822255609231
34.660673397173383 20.075031383157466 26.322016354563228
28.954795711401381 21.406600569308466 5.429466993116230
31.778758382771379 23.387634643168465 12.446661092070229
34.602721054141384 25.368668717028463 19.463855191024230
37.426683725511381 27.349702790888465 26.481049289978227
31.720806039739379 28.681271977039465 5.588499928531229
34.544768711109384 30.662306050899463 12.605694027485228
37.368731382479382 32.643340124759462 19.622888126439229
40.192694053849380 34.624374198619464 26.640082225393229
31.204555215027380 6.981954707937465 5.270434048776230
34.028517886397381 8.962988781797465 12.287628147730230
36.852480557767379 10.944022855657465 19.304822246684228
39.676443229137377 12.925056929517465 26.322016345638229
33.970565543365382 14.256626115668464 5.429466984191230
36.794528214735379 16.237660189528462 12.446661083145230
39.618490886105377 18.218694263388464 19.463855182099230
42.442453557475382 20.199728337248466 26.481049281053227
36.736575871703380 21.531297523399466 5.588499919606230
39.560538543073378 23.512331597259465 12.605694018560229
42.384501214443382 25.493365671119463 19.622888117514229
45.208463885813380 27.474399744979465 26.640082216468226
39.502586200041378 28.805968931130465 5.747532855021229
42.326548871411383 30.787003004990463 12.764726953975229
45.150511542781381 32.768037078850469 19.781921052929228
47.974474214151378 34.749071152710464 26.799115151883228
9.925772574028775 5.318394224553871 7.065683987359413
12.749735245398774 7.299428298413871 14.082878086313412
15.573697916768776 9.280462372273870 21.100072185267411
18.397660588138777 11.261496446133872 28.117266284221412
12.691782902366775 12.593065632284871 7.224716922774413
15.515745573736774 14.574099706144871 14.241911021728413
18.339708245106777 16.555133780004869 21.259105120682413
21.163670916476775 18.536167853864871 28.276299219636410
15.457793230704775 19.867737040015871 7.383749858189413
18.281755902074774 21.848771113875870 14.400943957143411
21.105718573444776 23.829805187735872 21.418138056097412
23.929681244814773 25.810839261595870 28.435332155051412
18.223803559042775 27.142408447746870 7.542782793604413
21.047766230412776 29.123442521606869 14.559976892558414
23.871728901782774 31.104476595466870 21.577170991512411
26.695691573152779 33.085510669326872 28.594365090466411
17.707552734330775 5.443091178644871 7.224716913849413
20.531515405700773 7.424125252504871 14.241911012803413
23.355478077070774 9.405159326364871 21.259105111757410
26.179440748440776 11.386193400224872 28.276299210711411
20.473563062668774 12.717762586375871 7.383749849264412
23.297525734038775 14.698796660235871 14.400943948218412
26.121488405408776 16.679830734095869 21.418138047172413
28.945451076778774 18.660864807955871 28.435332146126413
23.239573391006772 19.992433994106872 7.542782784679413
26.063536062376777 21.973468067966870 14.559976883633412
28.887498733746774 23.954502141826868 21.577170982587411
31.711461405116772 25.935536215686870 28.594365081541412
26.005583719344777 27.267105401837870 7.701815720094412
28.829546390714775 29.248139475697869 14.719009819048413
31.653509062084773 31.229173549557871 21.736203918002413
34.477471733454777 33.210207623417872 28.753398016956410
25.489332894632774 5.567788132735871 7.383749840339413
28.313295566002772 7.548822206595871 14.400943939293413
31.137258237372777 9.529856280455871 21.418138038247413
33.961220908742774 11.510890354315872 28.435332137201410
28.255343222970772 12.842459540466871 7.542782775754413
31.079305894340777 14.823493614326871 14.559976874708411
33.903268565710775 16.804527688186869 21.577170973662412
36.727231237080773 18.785561762046871 28.594365072616412
31.021353551308778 20.117130948197872 7.701815711169413
33.845316222678775 22.098165022057870 14.719009810123413
36.669278894048773 24.079199095917868 21.736203909077410
39.493241565418778 26.060233169777870 28.753398008031411
33.787363879646776 27.391802355928871 7.860848646584413
36.611326551016774 29.372836429788869 14.878042745538412
39.435289222386771 31.353870503648871 21.895236844492413
42.259251893756776 33.334904577508873 28.912430943446413
33.271113054934773 5.692485086826871 7.542782766829413
36.095075726304778 7.673519160686871 14.559976865783412
38.919038397674775 9.654553234546871 21.577170964737412
41.743001069044773 11.635587308406873 28.594365063691413
36.037123383272778 12.967156494557871 7.701815702244413
38.861086054642776 14.948190568417871 14.719009801198412
41.685048726012774 16.929224642277870 21.736203900152411
44.509011397382778 18.910258716137871 28.753397999106411
38.803133711610776 20.241827902288872 7.860848637659413
41.627096382980774 22.222861976148870 14.878042736613413
44.451059054350779 24.203896050008868 21.895236835567413
47.275021725720777 26.184930123868870 28.912430934521410
41.569144039948775 27.516499310019871 8.019881573074413
44.393106711318779 29.497533383879869 15.037075672028411
47.217069382688777 31.478567457739871 22.054269770982412
50.041032054058775 33.459601531599873 29.071463869936412
6.020766056492114 1.542026521937973 0.899069565148933
8.844728727862114 3.523060595797973 7.916263664102932
11.668691399232113 5.504094669657973 14.933457763056932
14.492654070602114 7.485128743517973 21.950651862010933
8.786776384830114 8.816697929668972 1.058102500563933
11.610739056200114 10.797732003528974 8.075296599517934
14.434701727570115 12.778766077388973 15.092490698471932
17.258664398940113 14.759800151248974 22.109684797425931
11.552786713168114 16.091369337399971 1.217135435978933
14.376749384538114 18.072403411259973 8.234329534932932
17.200712055908113 20.053437485119975 15.251523633886933
20.024674727278114 22.034471558979973 22.268717732840933
14.318797041506114 23.366040745130974 1.376168371393933
17.142759712876114 25.347074818990972 8.393362470347933
19.966722384246115 27.328108892850974 15.410556569301932
22.790685055616116 29.309142966710976 22.427750668255932
13.802546216794113 1.666723476028973 1.058102491638933
16.626508888164114 3.647757549888973 8.075296590592933
19.450471559534115 5.628791623748973 15.092490689546931
22.274434230904113 7.609825697608973 22.109684788500932
16.568556545132115 8.941394883759973 1.217135427053933
19.392519216502116 10.922428957619971 8.234329526007933
22.216481887872114 12.903463031479973 15.251523624961932
25.040444559242115 14.884497105339971 22.268717723915934
19.334566873470113 16.216066291490971 1.376168362468933
22.158529544840114 18.197100365350973 8.393362461422933
24.982492216210112 20.178134439210972 15.410556560376932
27.806454887580113 22.159168513070973 22.427750659330933
22.100577201808115 23.490737699221974 1.535201297883933
24.924539873178112 25.471771773081972 8.552395396837932
27.748502544548113 27.452805846941974 15.569589495791933
30.572465215918115 29.433839920801972 22.586783594745931
21.584326377096112 1.791420430119973 1.217135418128933
24.408289048466113 3.772454503979973 8.234329517082934
27.232251719836114 5.753488577839973 15.251523616036932
30.056214391206112 7.734522651699973 22.268717714990931
24.350336705434113 9.066091837850973 1.376168353543933
27.174299376804115 11.047125911710971 8.393362452497932
29.998262048174112 13.028159985570973 15.410556551451933
32.822224719544110 15.009194059430971 22.427750650405933
27.116347033772115 16.340763245581972 1.535201288958933
29.940309705142113 18.321797319441973 8.552395387912933
32.764272376512110 20.302831393301972 15.569589486866931
35.588235047882115 22.283865467161974 22.586783585820932
29.882357362110113 23.615434653312974 1.694234224373933
32.706320033480111 25.596468727172972 8.711428323327933
35.530282704850109 27.577502801032974 15.728622422281932
38.354245376220113 29.558536874892972 22.745816521235934
29.366106537398114 1.916117384210973 1.376168344618933
32.190069208768115 3.897151458070973 8.393362443572933
35.014031880138113 5.878185531930973 15.410556542526932
37.837994551508118 7.859219605790973 22.427750641480934
32.132116865736116 9.190788791941973 1.535201280033933
34.956079537106113 11.171822865801971 8.552395378987933
37.780042208476118 13.152856939661973 15.569589477941932
40.604004879846116 15.133891013521971 22.586783576895932
34.898127194074114 16.465460199672972 1.694234215448933
37.722089865444119 18.446494273532974 8.711428314402934
40.546052536814116 20.427528347392972 15.728622413356932
43.370015208184114 22.408562421252974 22.745816512310931
37.664137522412112 23.740131607403974 1.853267150863933
40.488100193782117 25.721165681263972 8.870461249817932
43.312062865152114 27.702199755123974 15.887655348771933
46.136025536522112 29.683233828983973 22.904849447725933
10.554106388131837 3.619983599596564 5.379545488720354
13.378069059501836 5.601017673456564 12.396739587674354
16.202031730871838 7.582051747316564 19.413933686628354
19.025994402241835 9.563085821176564 26.431127785582351
13.320116716469837 10.894655007327565 5.538578424135355
16.144079387839838 12.875689081187565 12.555772523089354
18.968042059209836 14.856723155047563 19.572966622043353
21.792004730579837 16.837757228907567 26.590160720997350
16.086127044807839 18.169326415058563 5.697611359550354
18.910089716177836 20.150360488918565 12.714805458504355
21.734052387547834 22.131394562778567 19.731999557458355
24.558015058917839 24.112428636638565 26.749193656412352
18.852137373145837 25.443997822789566 5.856644294965355
21.676100044515834 27.425031896649564 12.873838393919353
24.500062715885839 29.406065970509566 19.891032492873354
27.324025387255837 31.387100044369568 26.908226591827351
18.335886548433837 3.744680553687564 5.538578415210354
21.159849219803839 5.725714627547564 12.555772514164353
23.983811891173836 7.706748701407564 19.572966613118354
26.807774562543834 9.687782775267564 26.590160712072350
21.101896876771839 11.019351961418565 5.697611350625354
23.925859548141837 13.000386035278563 12.714805449579353
26.749822219511834 14.981420109138563 19.731999548533352
29.573784890881839 16.962454182998563 26.749193647487353
23.867907205109837 18.294023369149564 5.856644286040354
26.691869876479835 20.275057443009565 12.873838384994354
29.515832547849833 22.256091516869564 19.891032483948354
32.339795219219837 24.237125590729566 26.908226582902351
26.633917533447836 25.568694776880566 6.015677221455354
29.457880204817833 27.549728850740564 13.032871320409352
32.281842876187838 29.530762924600566 20.050065419363353
35.105805547557836 31.511796998460564 27.067259518317350
26.117666708735836 3.869377507778564 5.697611341700354
28.941629380105837 5.850411581638564 12.714805440654354
31.765592051475835 7.831445655498564 19.731999539608353
34.589554722845833 9.812479729358564 26.749193638562350
28.883677037073838 11.144048915509565 5.856644277115354
31.707639708443836 13.125082989369563 12.873838376069354
34.531602379813833 15.106117063229563 19.891032475023355
37.355565051183838 17.087151137089563 26.908226573977352
31.649687365411836 18.418720323240564 6.015677212530354
34.473650036781834 20.399754397100565 13.032871311484353
37.297612708151838 22.380788470960564 20.050065410438354
40.121575379521836 24.361822544820566 27.067259509392350
34.415697693749834 25.693391730971566 6.174710147945354
37.239660365119839 27.674425804831564 13.191904246899353
40.063623036489837 29.655459878691566 20.209098345853352
42.887585707859834 31.636493952551564 27.226292444807353
33.899446869037838 3.994074461869564 5.856644268190355
36.723409540407836 5.975108535729564 12.873838367144355
39.547372211777834 7.956142609589564 19.891032466098352
42.371334883147838 9.937176683449565 26.908226565052352
36.665457197375837 11.268745869600565 6.015677203605354
39.489419868745834 13.249779943460563 13.032871302559354
42.313382540115839 15.230814017320563 20.050065401513354
45.137345211485837 17.211848091180563 27.067259500467351
39.431467525713835 18.543417277331564 6.174710139020354
42.255430197083840 20.524451351191566 13.191904237974354
45.079392868453837 22.505485425051564 20.209098336928353
47.903355539823835 24.486519498911566 27.226292435882350
42.197477854051833 25.818088685062566 6.333743074435354
45.021440525421838 27.799122758922564 13.350937173389354
47.845403196791835 29.780156832782566 20.368131272343355
50.669365868161833 31.761190906642565 27.385325371297352
8.956978343641236 4.938575578431340 5.879875516233852
11.780941015011235 6.919609652291340 12.897069615187853
14.604903686381235 8.900643726151340 19.914263714141853
17.428866357751236 10.881677800011341 26.931457813095850
11.722988671979236 12.213246986162339 6.038908451648853
14.546951343349235 14.194281060022341 13.056102550602851
17.370914014719236 16.175315133882339 20.073296649556852
20.194876686089238 18.156349207742341 27.090490748510849
14.488999000317236 19.487918393893338 6.197941387063852
17.312961671687233 21.468952467753340 13.215135486017852
20.136924343057235 23.449986541613342 20.232329584971851
22.960887014427236 25.431020615473340 27.249523683925851
17.255009328655234 26.762589801624340 6.356974322478853
20.078972000025235 28.743623875484339 13.374168421432852
22.902934671395236 30.724657949344341 20.391362520386849
25.726897342765238 32.705692023204342 27.408556619340850
16.738758503943235 5.063272532522340 6.038908442723852
19.562721175313236 7.044306606382341 13.056102541677852
22.386683846683233 9.025340680242341 20.073296640631852
25.210646518053235 11.006374754102341 27.090490739585849
19.504768832281236 12.337943940253339 6.197941378138852
22.328731503651234 14.318978014113339 13.215135477092851
25.152694175021235 16.300012087973339 20.232329576046851
27.976656846391236 18.281046161833338 27.249523675000852
22.270779160619234 19.612615347984338 6.356974313553852
25.094741831989236 21.593649421844340 13.374168412507853
27.918704503359233 23.574683495704338 20.391362511461850
30.742667174729235 25.555717569564340 27.408556610415850
25.036789488957236 26.887286755715341 6.516007248968853
27.860752160327234 28.868320829575339 13.533201347922851
30.684714831697235 30.849354903435341 20.550395446876852
33.508677503067233 32.830388977295343 27.567589545830849
24.520538664245237 5.187969486613341 6.197941369213853
27.344501335615234 7.169003560473341 13.215135468167851
30.168464006985236 9.150037634333341 20.232329567121852
32.992426678355230 11.131071708193341 27.249523666075849
27.286548992583235 12.462640894344339 6.356974304628852
30.110511663953236 14.443674968204339 13.374168403582852
32.934474335323230 16.424709042064340 20.391362502536850
35.758437006693235 18.405743115924338 27.408556601490851
30.052559320921237 19.737312302075338 6.516007240043852
32.876521992291231 21.718346375935340 13.533201338997852
35.700484663661236 23.699380449795338 20.550395437951849
38.524447335031240 25.680414523655340 27.567589536905849
32.818569649259231 27.011983709806341 6.675040175458852
35.642532320629236 28.993017783666339 13.692234274412851
38.466494991999234 30.974051857526341 20.709428373366851
41.290457663369239 32.955085931386336 27.726622472320852
32.302318824547235 5.312666440704341 6.356974295703853
35.126281495917240 7.293700514564341 13.374168394657852
37.950244167287238 9.274734588424341 20.391362493611851
40.774206838657236 11.255768662284341 27.408556592565851
35.068329152885241 12.587337848435340 6.516007231118852
37.892291824255238 14.568371922295340 13.533201330072853
40.716254495625236 16.549405996155340 20.550395429026850
43.540217166995234 18.530440070015338 27.567589527980850
37.834339481223239 19.862009256166338 6.675040166533853
40.658302152593237 21.843043330026340 13.692234265487851
43.482264823963234 23.824077403886339 20.709428364441852
46.306227495333232 25.805111477746340 27.726622463395849
40.600349809561237 27.136680663897341 6.834073101948852
43.424312480931235 29.117714737757339 13.851267200902852
46.248275152301233 31.098748811617341 20.868461299856854
49.072237823671230 33.079782885477343 27.885655398810851
8.092133981577435 4.126228027047390 1.870948445839804
10.916096652947434 6.107262100907390 8.888142544793803
13.740059324317436 8.088296174767390 15.905336643747804
16.564021995687433 10.069330248627391 22.922530742701802
10.858144309915435 11.400899434778390 2.029981381254804
13.682106981285434 13.381933508638390 9.047175480208804
16.506069652655434 15.362967582498388 16.064369579162804
19.330032324025435 17.344001656358390 23.081563678116801
13.624154638253435 18.675570842509391 2.189014316669804
16.448117309623434 20.656604916369389 9.206208415623804
19.272079980993432 22.637638990229391 16.223402514577803
22.096042652363437 24.618673064089389 23.240596613531803
16.390164966591435 25.950242250240390 2.348047252084804
19.214127637961433 27.931276324100388 9.365241351038804