DMC-ICE13 ice XVII; Cartesian 2x2x2 supercell
1.0
6.233817764092440 10.752349190520000 -0.040829816338000
-6.200010054593481 10.773204536568000 -0.058611368388000
-0.017443778645325 0.055293675010000 11.885618629412001
H O
96 48
Cartesian
2.449054068189321 5.647847862745304 1.136540975676218
2.440332178866658 5.675494700250304 7.079350290382219
-0.650950959107419 11.034450131029304 1.107235291482218
-0.659672848430082 11.062096968534306 7.050044606188218
5.565962950235542 11.024022458005305 1.116126067507218
5.557241060912879 11.051669295510305 7.058935382213218
2.465957922938800 16.410624726289306 1.086820383313218
2.457236033616138 16.438271563794306 7.029629698019218
-2.906908779344491 5.097306504470466 3.112551681508873
-2.915630668667153 5.124953341975466 9.055360996214873
-6.006913806641231 10.483908772754466 3.083245997314873
-6.015635695963893 10.511555610259467 9.026055312020873
0.210000102701729 10.473481099730467 3.092136773339873
0.201278213379067 10.501127937235466 9.034946088045874
-2.890004924595011 15.860083368014468 3.062831089145873
-2.898726813917674 15.887730205519468 9.005640403851874
0.252252226506322 0.753547956079230 5.118155151367717
0.243530337183660 0.781194793584230 11.060964466073717
-2.847752800790419 6.140150224363230 5.088849467173717
-2.856474690113081 6.167797061868231 11.031658781879717
3.369161108552543 6.129722551339230 5.097740243198717
3.360439219229880 6.157369388844231 11.040549557904718
0.269156081255801 11.516324819623232 5.068434559004717
0.260434191933139 11.543971657128232 11.011243873710718
2.039187770641456 4.154625516557047 1.532720868226767
2.030465881318793 4.182272354062047 7.475530182932768
-1.060817256655284 9.541227784841048 1.503415184032767
-1.069539145977948 9.568874622346048 7.446224498738768
5.156096652687674 9.530800111817047 1.512305960057768
5.147374763365013 9.558446949322047 7.455115274763767
2.056091625390936 14.917402380101048 1.483000275863767
2.047369736068273 14.945049217606048 7.425809590569767
-1.407671226041869 5.490504049025038 3.502873169000408
-1.416393115364532 5.518150886530038 9.445682483706408
-4.507676253338610 10.877106317309039 3.473567484806408
-4.516398142661273 10.904753154814038 9.416376799512408
1.709237656004351 10.866678644285038 3.482458260831407
1.700515766681688 10.894325481790037 9.425267575537408
-1.390767371292389 16.253280912569039 3.453152576637407
-1.399489260615052 16.280927750074039 9.395961891343408
-0.837885147510806 1.857654470505858 5.501496756265968
-0.846607036833468 1.885301308010858 11.444306070971969
-3.937890174807546 7.244256738789858 5.472191072071968
-3.946612064130209 7.271903576294858 11.415000386777969
2.279023734535415 7.233829065765858 5.481081848096968
2.270301845212752 7.261475903270858 11.423891162802969
-0.820981292761326 12.620431334049860 5.451776163902968
-0.829703182083988 12.648078171554859 11.394585478608969
0.717327942986223 5.824670091825422 2.538224208004126
0.708606053663561 5.852316929330422 8.481033522710128
-2.382677084310517 11.211272360109422 2.508918523810126
-2.391398973633180 11.238919197614422 8.451727838516128
3.834236825032443 11.200844687085421 2.517809299835126
3.825514935709781 11.228491524590423 8.460618614541126
0.734231797735703 16.587446955369423 2.488503615641126
0.725509908413041 16.615093792874422 8.431312930347126
0.923905655399651 8.896542456136281 4.505184581867880
0.915183766076988 8.924189293641280 10.447993896573880
-2.176099371897090 14.283144724420282 4.475878897673880
-2.184821261219753 14.310791561925281 10.418688212379880
4.040814537445870 14.272717051396281 4.484769673698880
4.032092648123207 14.300363888901281 10.427578988404880
0.940809510149130 19.659319319680282 4.455463989504880
0.932087620826468 19.686966157185282 10.398273304210880
-1.826986226039684 7.529512060820658 0.546014179415357
-1.835708115362346 7.557158898325659 6.488823494121357
-4.926991253336425 12.916114329104659 0.516708495221357
-4.935713142659088 12.943761166609658 6.459517809927357
1.289922656006536 12.905686656080658 0.525599271246357
1.281200766683874 12.933333493585659 6.468408585952357
-1.810082371290204 18.292288924364659 0.496293587052357
-1.818804260612866 18.319935761869658 6.439102901758357
-0.663284605633958 7.340277832327126 1.630596766133060
-0.672006494956621 7.367924669832126 7.573406080839060
-3.763289632930698 12.726880100611126 1.601291081939060
-3.772011522253361 12.754526938116125 7.544100396645060
2.453624276412262 12.716452427587125 1.610181857964060
2.444902387089599 12.744099265092126 7.552991172670060
-0.646380750884478 18.103054695871126 1.580876173770060
-0.655102640207141 18.130701533376126 7.523685488476060
0.300579974610943 6.935217472820593 3.614728761766080
0.291858085288281 6.962864310325593 9.557538076472081
-2.799425052685797 12.321819741104594 3.585423077572080
-2.808146942008460 12.349466578609594 9.528232392278081
3.417488856657163 12.311392068080593 3.594313853597080
3.408766967334500 12.339038905585593 9.537123168303081
0.317483829360423 17.697994336364594 3.565008169403080
0.308761940037761 17.725641173869594 9.507817484109081
0.172983800462005 7.988958098801410 5.590652401835019
0.164261911139343 8.016604936306409 11.533461716541019
-2.927021226834735 13.375560367085409 5.561346717641019
-2.935743116157397 13.403207204590410 11.504156032347019
3.289892682508225 13.365132694061410 5.570237493666019
3.281170793185563 13.392779531566411 11.513046808372019
0.189887655211485 18.751734962345409 5.540931809472019
0.181165765888823 18.779381799850412 11.483741124178019
-0.077778560114613 1.323933249602572 5.872738707363856
-0.086500449437276 1.351580087107572 11.815548022069857
-3.177783587411354 6.710535517886573 5.843433023169856
-3.186505476734017 6.738182355391573 11.786242337875857
3.039130321931607 6.700107844862573 5.852323799194856
3.030408432608945 6.727754682367573 11.795133113900857
-0.060874705365133 12.086710113146573 5.823018115000856
-0.069596594687796 12.114356950651572 11.765827429706857
2.121671006628586 5.082768049158548 1.896254253800760
2.112949117305924 5.110414886663548 7.839063568506761
-0.978334020668154 10.469370317442548 1.866948569606760
-0.987055909990816 10.497017154947549 7.809757884312761
5.238579888674808 10.458942644418549 1.875839345631760
5.229857999352144 10.486589481923549 7.818648660337761
2.138574861378066 15.845544912702550 1.846533661437760
2.129852972055404 15.873191750207550 7.789342976143761
-2.252639135676786 5.102269194974025 3.871260113836954
-2.261361024999449 5.129916032479025 9.814069428542954
-5.352644162973526 10.488871463258025 3.841954429642954
-5.361366052296189 10.516518300763025 9.784763744348954
0.864269746369435 10.478443790234024 3.850845205667954
0.855547857046772 10.506090627739026 9.793654520373954
-2.235735280927306 15.865046058518026 3.821539521473954
-2.244457170249968 15.892692896023025 9.764348836179954
-0.059786501472025 6.347952971993556 2.888144789503635
-0.068508390794687 6.375599809498556 8.830954104209635
-3.159791528768765 11.734555240277556 2.858839105309635
-3.168513418091428 11.762202077782558 8.801648420015635
3.057122380574195 11.724127567253557 2.867729881334635
3.048400491251532 11.751774404758557 8.810539196040635
-0.042882646722545 17.110729835537558 2.838424197140635
-0.051604536045207 17.138376673042558 8.781233511846635
0.860174626968469 7.964741187451218 4.862726180546602
0.851452737645807 7.992388024956218 10.805535495252602
-2.239830400328271 13.351343455735218 4.833420496352602
-2.248552289650933 13.378990293240218 10.776229811058602
3.977083509014689 13.340915782711217 4.842311272377602
3.968361619692027 13.368562620216219 10.785120587083602
0.877078481717949 18.727518050995219 4.813005588183602
0.868356592395287 18.755164888500218 10.755814902889602
-0.986886370471259 7.941993938213103 0.898546988891357
-0.995608259793922 7.969640775718103 6.841356303597357
-4.086891397767999 13.328596206497103 0.869241304697357
-4.095613287090662 13.356243044002102 6.812050619403357
2.130022511574961 13.318168533473102 0.878132080722357
2.121300622252299 13.345815370978103 6.820941395428357
-0.969982515721779 18.704770801757103 0.848826396528357
-0.978704405044442 18.732417639262103 6.791635711234357
