DMC-ICE13 ice XV; Cartesian 2x2x2 supercell
1.0
12.516926000000000 0.000000000000000 0.002184000000000
0.017512000000000 12.540004000000000 -0.013134000000000
0.000000000000000 0.000000000000000 11.629216000000000
H O
160 80
Cartesian
1.548649983714000 2.289773380390000 2.039897789643000
1.548649983714000 2.289773380390000 7.854505789643000
1.557405983714000 8.559775380390001 2.033330789643000
1.557405983714000 8.559775380390001 7.847938789642999
7.807112983713999 2.289773380390000 2.040989789643000
7.807112983713999 2.289773380390000 7.855597789642999
7.815868983713999 8.559775380390001 2.034422789643000
7.815868983713999 8.559775380390001 7.849030789643001
1.570347992956000 0.752538180044000 2.014933428086000
1.570347992956000 0.752538180044000 7.829541428085999
1.579103992956000 7.022540180043999 2.008366428086000
1.579103992956000 7.022540180043999 7.822974428085999
7.828810992956000 0.752538180044000 2.016025428086000
7.828810992956000 0.752538180044000 7.830633428085999
7.837566992956000 7.022540180043999 2.009458428086000
7.837566992956000 7.022540180043999 7.824066428086001
1.598591506910000 4.225084737714000 3.635332119153000
1.598591506910000 4.225084737714000 9.449940119153000
1.607347506910000 10.495086737714001 3.628765119153000
1.607347506910000 10.495086737714001 9.443373119153000
7.857054506910000 4.225084737714000 3.636424119153000
7.857054506910000 4.225084737714000 9.451032119153000
7.865810506910000 10.495086737714001 3.629857119153000
7.865810506910000 10.495086737714001 9.444465119153000
4.258092865206000 1.575620152590000 5.074489214719000
4.258092865206000 1.575620152590000 10.889097214718999
4.266848865206000 7.845622152590000 5.067922214718999
4.266848865206000 7.845622152590000 10.882530214718999
10.516555865206000 1.575620152590000 5.075581214719000
10.516555865206000 1.575620152590000 10.890189214718999
10.525311865206000 7.845622152590000 5.069014214719000
10.525311865206000 7.845622152590000 10.883622214719001
2.312588064657000 2.862550603094000 4.069647936327000
2.312588064657000 2.862550603094000 9.884255936327000
2.321344064657000 9.132552603094000 4.063080936326999
2.321344064657000 9.132552603094000 9.877688936326999
8.571051064657000 2.862550603094000 4.070739936327000
8.571051064657000 2.862550603094000 9.885347936326999
8.579807064657000 9.132552603094000 4.064172936327000
8.579807064657000 9.132552603094000 9.878780936327001
2.359427728829000 6.520457229889999 4.072342218685000
2.359427728829000 6.520457229889999 9.886950218685000
2.368183728829000 12.790459229889999 4.065775218684999
2.368183728829000 12.790459229889999 9.880383218684999
8.617890728829000 6.520457229889999 4.073434218685000
8.617890728829000 6.520457229889999 9.888042218684999
8.626646728829000 12.790459229889999 4.066867218685000
8.626646728829000 12.790459229889999 9.881475218685001
0.828187406423000 6.479438876806000 4.092666838135000
0.828187406423000 6.479438876806000 9.907274838134999
0.836943406423000 12.749440876806000 4.086099838135000
0.836943406423000 12.749440876806000 9.900707838134998
7.086650406423000 6.479438876806000 4.093758838135000
7.086650406423000 6.479438876806000 9.908366838134999
7.095406406423000 12.749440876806000 4.087191838135000
7.095406406423000 12.749440876806000 9.901799838135000
6.516002839667000 2.266116662844000 4.516422611666000
6.516002839667000 2.266116662844000 10.331030611666000
6.524758839667000 8.536118662844000 4.509855611666000
6.524758839667000 8.536118662844000 10.324463611665999
12.774465839667000 2.266116662844000 4.517514611666000
12.774465839667000 2.266116662844000 10.332122611666000
12.783221839667000 8.536118662844000 4.510947611666000
12.783221839667000 8.536118662844000 10.325555611666001
2.873979380036000 1.554596835884000 5.881994374806000
2.873979380036000 1.554596835884000 11.696602374806000
2.882735380036000 7.824598835884000 5.875427374806000
2.882735380036000 7.824598835884000 11.690035374806000
9.132442380036000 1.554596835884000 5.883086374806000
9.132442380036000 1.554596835884000 11.697694374806000
9.141198380036000 7.824598835884000 5.876519374806001
9.141198380036000 7.824598835884000 11.691127374806001
6.564776224742000 1.531987208672000 5.887302102120000
6.564776224742000 1.531987208672000 11.701910102119999
6.573532224742000 7.801989208672000 5.880735102119999
6.573532224742000 7.801989208672000 11.695343102119999
12.823239224742000 1.531987208672000 5.888394102119999
12.823239224742000 1.531987208672000 11.703002102119999
12.831995224742000 7.801989208672000 5.881827102120000
12.831995224742000 7.801989208672000 11.696435102119999
3.393239619964000 4.715405164116000 -0.072861374806000
3.393239619964000 4.715405164116000 5.741746625194000
3.401995619964000 10.985407164115999 -0.079428374806000
3.401995619964000 10.985407164115999 5.735179625193999
9.651702619963999 4.715405164116000 -0.071769374806000
9.651702619963999 4.715405164116000 5.742838625194000
9.660458619964000 10.985407164115999 -0.078336374806000
9.660458619964000 10.985407164115999 5.736271625194000
-0.297557224742000 4.738014791328000 -0.078169102120000
-0.297557224742000 4.738014791328000 5.736438897879999
-0.288801224742000 11.008016791328000 -0.084736102120000
-0.288801224742000 11.008016791328000 5.729871897879999
5.960905775258000 4.738014791328000 -0.077077102120000
5.960905775258000 4.738014791328000 5.737530897879999
5.969661775258000 11.008016791328000 -0.083644102120000
5.969661775258000 11.008016791328000 5.730963897880000
4.718569016286000 3.980228619610000 3.769235210357000
4.718569016286000 3.980228619610000 9.583843210356999
4.727325016286000 10.250230619609999 3.762668210357000
4.727325016286000 10.250230619609999 9.577276210356999
10.977032016286000 3.980228619610000 3.770327210357000
10.977032016286000 3.980228619610000 9.584935210356999
10.985788016286000 10.250230619609999 3.763760210357000
10.985788016286000 10.250230619609999 9.578368210357000
4.696871007044000 5.517463819956000 3.794199571914000
4.696871007044000 5.517463819956000 9.608807571913999
4.705627007044000 11.787465819956001 3.787632571914000
4.705627007044000 11.787465819956001 9.602240571913999
10.955334007044000 5.517463819956000 3.795291571913999
10.955334007044000 5.517463819956000 9.609899571913999
10.964090007044000 11.787465819956001 3.788724571913999
10.964090007044000 11.787465819956001 9.603332571913999
4.668627493090000 2.044917262286000 2.173800880847000
4.668627493090000 2.044917262286000 7.988408880847000
4.677383493090000 8.314919262286001 2.167233880847000
4.677383493090000 8.314919262286001 7.981841880847000
10.927090493089999 2.044917262286000 2.174892880847000
10.927090493089999 2.044917262286000 7.989500880847000
10.935846493090001 8.314919262286001 2.168325880847000
10.935846493090001 8.314919262286001 7.982933880847000
2.009126134794000 4.694381847410000 0.734643785281000
2.009126134794000 4.694381847410000 6.549251785280999
2.017882134794000 10.964383847410000 0.728076785281000
2.017882134794000 10.964383847410000 6.542684785280999
8.267589134794001 4.694381847410000 0.735735785281000
8.267589134794001 4.694381847410000 6.550343785280999
8.276345134793999 10.964383847410000 0.729168785281000
8.276345134793999 10.964383847410000 6.543776785281000
3.954630935343000 3.407451396906000 1.739490878281000
3.954630935343000 3.407451396906000 7.554098878281000
3.963386935343000 9.677453396905999 1.732923878281000
3.963386935343000 9.677453396905999 7.547531878280999
10.213093935343000 3.407451396906000 1.740582878281000
10.213093935343000 3.407451396906000 7.555190878281000
10.221849935343000 9.677453396905999 1.734015878281000
10.221849935343000 9.677453396905999 7.548623878281000
3.907791271171000 -0.250455229890000 1.736790781315000
3.907791271171000 -0.250455229890000 7.551398781315000
3.916547271171000 6.019546770110000 1.730223781315000
3.916547271171000 6.019546770110000 7.544831781315000
10.166254271170999 -0.250455229890000 1.737882781315000
10.166254271170999 -0.250455229890000 7.552490781315000
10.175010271171001 6.019546770110000 1.731315781315000
10.175010271171001 6.019546770110000 7.545923781315000
5.439031593577000 -0.209436876806000 1.716466161865000
5.439031593577000 -0.209436876806000 7.531074161865000
5.447787593577000 6.060565123193999 1.709899161865000
5.447787593577000 6.060565123193999 7.524507161864999
11.697494593577000 -0.209436876806000 1.717558161865000
11.697494593577000 -0.209436876806000 7.532166161865000
11.706250593577000 6.060565123193999 1.710991161865000
11.706250593577000 6.060565123193999 7.525599161865000
-0.248783839667000 4.003885337155999 1.292710388334000
-0.248783839667000 4.003885337155999 7.107318388334000
-0.240027839667000 10.273887337155999 1.286143388334000
-0.240027839667000 10.273887337155999 7.100751388333999
6.009679160333000 4.003885337155999 1.293802388334000
6.009679160333000 4.003885337155999 7.108410388334000
6.018435160333000 10.273887337155999 1.287235388334000
6.018435160333000 10.273887337155999 7.101843388334000
1.598753988620000 6.053392240906000 3.641225809621000
1.598753988620000 6.053392240906000 9.455833809621000
1.607509988620000 12.323394240906000 3.634658809621000
1.607509988620000 12.323394240906000 9.449266809620999
7.857216988619999 6.053392240906000 3.642317809621000
7.857216988619999 6.053392240906000 9.456925809621000
7.865972988619999 12.323394240906000 3.635750809621000
7.865972988619999 12.323394240906000 9.450358809621001
6.082081053585000 1.532921438970000 5.021817163097000
6.082081053585000 1.532921438970000 10.836425163097001
6.090837053585000 7.802923438970000 5.015250163097000
6.090837053585000 7.802923438970000 10.829858163097001
12.340544053584999 1.532921438970000 5.022909163097000
12.340544053584999 1.532921438970000 10.837517163097001
12.349300053585001 7.802923438970000 5.016342163097001
12.349300053585001 7.802923438970000 10.830950163097000
1.574067367819000 1.529171977774000 1.403836654507000
1.574067367819000 1.529171977774000 7.218444654507000
1.582823367819000 7.799173977774000 1.397269654507000
1.582823367819000 7.799173977774000 7.211877654506999
7.832530367818999 1.529171977774000 1.404928654507000
7.832530367818999 1.529171977774000 7.219536654506999
7.841286367818999 7.799173977774000 1.398361654507000
7.841286367818999 7.799173977774000 7.212969654507000
1.533545232907000 3.237659742746000 3.590198849361000
1.533545232907000 3.237659742746000 9.404806849361000
1.542301232907000 9.507661742745999 3.583631849361000
1.542301232907000 9.507661742745999 9.398239849361000
7.792008232907000 3.237659742746000 3.591290849361000
7.792008232907000 3.237659742746000 9.405898849361000
7.800764232906999 9.507661742745999 3.584723849361000
7.800764232906999 9.507661742745999 9.399331849360999
3.272038413580000 1.569481820632000 4.978551186475999
3.272038413580000 1.569481820632000 10.793159186476000
3.280794413580000 7.839483820631999 4.971984186475999
3.280794413580000 7.839483820631999 10.786592186476000
9.530501413580000 1.569481820632000 4.979643186475999
9.530501413580000 1.569481820632000 10.794251186476000
9.539257413580000 7.839483820631999 4.973076186476000
9.539257413580000 7.839483820631999 10.787684186476000
4.693151632180999 4.740830022226000 4.405296345492999
4.693151632180999 4.740830022226000 10.219904345492999
4.701907632180999 11.010832022226001 4.398729345492999
4.701907632180999 11.010832022226001 10.213337345492999
10.951614632180998 4.740830022226000 4.406388345492999
10.951614632180998 4.740830022226000 10.220996345492999
10.960370632181000 11.010832022226001 4.399821345493000
10.960370632181000 11.010832022226001 10.214429345492999
4.733673767093000 3.032342257254000 2.218939965247000
4.733673767093000 3.032342257254000 8.033547965246999
4.742429767093000 9.302344257253999 2.212372965247000
4.742429767093000 9.302344257253999 8.026980965246999
10.992136767093001 3.032342257254000 2.220031965247000
10.992136767093001 3.032342257254000 8.034639965246999
11.000892767092999 9.302344257253999 2.213464965247000
11.000892767092999 9.302344257253999 8.028072965247000
2.995180586420000 4.700520179368000 0.830581813524000
2.995180586420000 4.700520179368000 6.645189813524000
3.003936586420000 10.970522179368000 0.824014813524000
3.003936586420000 10.970522179368000 6.638622813523999
9.253643586420001 4.700520179368000 0.831673813524000
9.253643586420001 4.700520179368000 6.646281813523999
9.262399586419999 10.970522179368000 0.825106813524000
9.262399586419999 10.970522179368000 6.639714813524000
0.185137946415000 4.737080561030000 0.787321651511000
0.185137946415000 4.737080561030000 6.601929651511000
0.193893946415000 11.007082561030000 0.780754651511000
0.193893946415000 11.007082561030000 6.595362651511000
6.443600946415000 4.737080561030000 0.788413651511000
6.443600946415000 4.737080561030000 6.603021651511000
6.452356946415000 11.007082561030000 0.781846651511000
6.452356946415000 11.007082561030000 6.596454651511000
4.668465011379999 0.216609759094000 2.167913004987000
4.668465011379999 0.216609759094000 7.982521004986999
4.677221011379999 6.486611759094000 2.161346004987000
4.677221011379999 6.486611759094000 7.975954004986999
10.926928011379999 0.216609759094000 2.169005004987000
10.926928011379999 0.216609759094000 7.983613004986999
10.935684011379999 6.486611759094000 2.162438004987000
10.935684011379999 6.486611759094000 7.977046004987001
