 # Version information for this restart file 
 # current date 2026-05-23 22:48:43.623
 # current working dir /home/kuehne88/periodic-gfn2-benchmarks/X23b/runs/cellopt_gamma/GFN1/cytosine_GFN1_gamma_cellopt
 # Program compiled at                                       2026-05-23 22:05:08
 # Program compiled on                                                spark-c86c
 # Program compiled for                                                  aarch64
 # Source code revision number                                        0622d442e4
 &GLOBAL
   PRINT_LEVEL LOW
   PROJECT_NAME "cytosine_GFN1_gamma_cell_opt"
   RUN_TYPE CELL_OPT
 &END GLOBAL
 &MOTION
   &CELL_OPT
     OPTIMIZER BFGS
     MAX_ITER 800
     STEP_START_VAL 200
     EXTERNAL_PRESSURE  0.0000000000000000E+000
   &END CELL_OPT
 &END MOTION
 &FORCE_EVAL
   METHOD QS
   STRESS_TENSOR ANALYTICAL
   &DFT
     &SCF
       MAX_SCF 300
       EPS_SCF  1.0000000000000001E-009
       SCF_GUESS MOPAC
       &MIXING T
         METHOD DIRECT_P_MIXING
         ALPHA  2.0000000000000001E-001
       &END MIXING
     &END SCF
     &QS
       EPS_DEFAULT  9.9999999999999998E-013
       METHOD XTB
       &XTB
         GFN_TYPE TBLITE
         &TBLITE T
           METHOD GFN1
           ACCURACY  1.0000000000000001E-001
         &END TBLITE
       &END XTB
     &END QS
   &END DFT
   &SUBSYS
     &CELL
       A  1.0637213892287667E+001  0.0000000000000000E+000  0.0000000000000000E+000
       B -1.4293092919112682E-013  1.0431285129345701E+001  0.0000000000000000E+000
       C  5.9355264037971352E-014 -1.9355008469231990E-014  3.9198178434562783E+000
       PERIODIC XYZ
       MULTIPLE_UNIT_CELL 1 1 1
     &END CELL
     &COORD
       C  9.8269904546380271E-001  2.3448906864568475E-001  2.0002940169996175E-001
       C  4.8269904546212233E-001  2.6551093135514403E-001  7.9997059830041828E-001
       C  1.7300954537867955E-002  7.3448906864487284E-001  2.9997059830041767E-001
       C  5.1730095453621150E-001  7.6551093135433346E-001  7.0002940169994210E-001
       C  1.0688574674721958E-001  2.7746854083988931E-001  6.6813198980755550E-001
       C  6.0688574674860707E-001  2.2253145916085312E-001  3.3186801019562095E-001
       C  8.9311425325140026E-001  7.7746854083915595E-001  8.3186801019559098E-001
       C  3.9311425325278460E-001  7.2253145916012085E-001  1.6813198980753022E-001
       C  1.4315403297445797E-001  1.4552859251697051E-001  7.0536405817669956E-001
       C  6.4315403297759988E-001  3.5447140748282968E-001  2.9463594182943148E-001
       C  8.5684596702243476E-001  6.4552859251717332E-001  7.9463594182936936E-001
       C  3.5684596702552912E-001  8.5447140748303529E-001  2.0536405817666725E-001
       C  1.0048507592104068E-001  6.3322985243767185E-002  4.6537005861064651E-001
       C  6.0048507592082678E-001  4.3667701475679371E-001  5.3462994138853459E-001
       C  8.9951492407918154E-001  5.6332298524322055E-001  1.0346299413885343E+000
       C  3.9951492407895195E-001  9.3667701475624499E-001 -3.4629941389356232E-002
       H  9.8528274386297499E-001  1.0423039763003201E+000  5.9308330980788998E-002
       H  4.8528274386411879E-001  4.5769602370077483E-001  9.4069166902042245E-001
       H  1.4717256135872775E-002  5.4230397629923088E-001  4.4069166902042073E-001
       H  5.1471725613703212E-001 -4.2303976300299508E-002  5.5930833098082433E-001
       H  1.2391246080290680E-001  4.5241014582748906E-001  8.9015175526406964E-001
       H  6.2391246080421803E-001  4.7589854174756370E-002  1.0984824473374893E-001
       H  8.7608753919578086E-001  9.5241014582525363E-001  6.0984824473372401E-001
       H  3.7608753919707538E-001  5.4758985417252737E-001  3.9015175526408274E-001
       H  2.2418943056340826E-001  3.3391384600151447E-001  1.0433998458929066E+000
       H  7.2418943056659835E-001  1.6608615399778476E-001 -4.3399845891277149E-002
       H  7.7581056943339277E-001  8.3391384600224372E-001  4.5660015410871657E-001
       H  2.7581056943659132E-001  6.6608615399851601E-001  5.4339984589290291E-001
       H  2.1458041188791083E-001  1.1934062976411534E-001  8.8634589040639389E-001
       H  7.1458041188873989E-001  3.8065937023495272E-001  1.1365410959204406E-001
       H  7.8541958811128254E-001  6.1934062976506699E-001  6.1365410959201150E-001
       H  2.8541958811208185E-001  8.8065937023589480E-001  3.8634589040638145E-001
       H  1.2081860611220502E-001  9.6189509907668602E-001  4.6380526140664563E-001
       H  6.2081860611247608E-001  5.3810490092371244E-001  5.3619473859035860E-001
       H  8.7918139388751448E-001  4.6189509907630688E-001  1.0361947385903498E+000
       H  3.7918139388777761E-001  3.8104900923324900E-002 -3.6194738593386878E-002
       N  2.9895544967080755E-002  1.0761973617631471E-001  2.0726865109765363E-001
       N  5.2989554496538038E-001  3.9238026382438856E-001  7.9273134889865071E-001
       N  9.7010445503459797E-001  6.0761973617562648E-001  2.9273134889870894E-001
       N  4.7010445503293480E-001  8.9238026382370095E-001  7.0726865109768855E-001
       N  2.8424255895918647E-002  3.1818385866700066E-001  4.3066292577984516E-001
       N  5.2842425589403430E-001  1.8181614133433621E-001  5.6933707421728574E-001
       N  9.7157574410595671E-001  8.1818385866567667E-001  6.9337074217284328E-002
       N  4.7157574410409292E-001  6.8181614133301116E-001  9.3066292577981991E-001
       N  1.4850227091389573E-001  3.5955395726992095E-001  9.0451080480587109E-001
       N  6.4850227091507762E-001  1.4044604273215977E-001  9.5489195192556026E-002
       N  8.5149772908491561E-001  8.5955395726785189E-001  5.9548919519255894E-001
       N  3.5149772908610838E-001  6.4044604273010119E-001  4.0451080480588236E-001
       O  9.0811715347197175E-001  2.6108966581389326E-001 -2.8533855232393369E-002
       O  4.0811715347118865E-001  2.3891033418735902E-001  1.0285338552356267E+000
       O  9.1882846528809847E-002  7.6108966581266879E-001  5.2853385523558938E-001
       O  5.9188284652803658E-001  7.3891033418613650E-001  4.7146614476755483E-001
       SCALED T
     &END COORD
     &TOPOLOGY
       NUMBER_OF_ATOMS 52
       MULTIPLE_UNIT_CELL 1 1 1
     &END TOPOLOGY
   &END SUBSYS
 &END FORCE_EVAL
