&GLOBAL
  PRINT_LEVEL LOW
  PROJECT adamantane_GFN2_gamma_cell_opt
  RUN_TYPE CELL_OPT
&END GLOBAL

&FORCE_EVAL
  METHOD Quickstep
  STRESS_TENSOR ANALYTICAL
  &DFT
    &QS
      EPS_DEFAULT 1.0E-12
      METHOD xTB
      &XTB
        GFN_TYPE TBLITE
        &TBLITE
          METHOD GFN2
          ACCURACY 0.1
        &END TBLITE
      &END XTB
    &END QS
    &SCF
      EPS_SCF 1.0E-9
      MAX_SCF 300
      SCF_GUESS MOPAC
      &MIXING
        METHOD DIRECT_P_MIXING
        ALPHA 0.2
      &END MIXING
    &END SCF
  &END DFT
  &SUBSYS
    &CELL
      PERIODIC XYZ
      A 6.639000000000 0.000000000000 0.000000000000
      B 0.000000000000 6.639000000000 0.000000000000
      C 0.000000000000 0.000000000000 8.918000000000
    &END CELL
    &COORD
      SCALED
      C   0.000000000000  1.000000000000  0.198000000000
      C   0.500000000000  0.500000000000  0.302000000000
      C   0.500000000000  0.500000000000  0.698000000000
      C   0.000000000000  0.000000000000  0.802000000000
      C   0.973800000000  0.186200000000  0.099200000000
      C   0.473800000000  0.313800000000  0.400800000000
      C   0.686200000000  0.473800000000  0.599200000000
      C   0.186200000000  0.026200000000  0.900800000000
      C   0.813800000000  0.973800000000  0.900800000000
      C   0.313800000000  0.526200000000  0.599200000000
      C   0.526200000000  0.686200000000  0.400800000000
      C   0.026200000000  0.813800000000  0.099200000000
      C   0.160000000000  0.212200000000  0.000000000000
      C   0.660000000000  0.287800000000  0.500000000000
      C   0.712200000000  0.660000000000  0.500000000000
      C   0.212200000000  0.840000000000  0.000000000000
      C   0.787800000000  0.160000000000  0.000000000000
      C   0.287800000000  0.340000000000  0.500000000000
      C   0.340000000000  0.712200000000  0.500000000000
      C   0.840000000000  0.787800000000  0.000000000000
      H   0.115600000000  0.009900000000  0.268800000000
      H   0.615600000000  0.490100000000  0.231200000000
      H   0.509900000000  0.615600000000  0.768800000000
      H   0.009900000000  0.884400000000  0.731200000000
      H   0.990100000000  0.115600000000  0.731200000000
      H   0.490100000000  0.384400000000  0.768800000000
      H   0.384400000000  0.509900000000  0.231200000000
      H   0.884400000000  0.990100000000  0.268800000000
      H   0.964500000000  0.301600000000  0.159000000000
      H   0.464500000000  0.198400000000  0.341000000000
      H   0.801600000000  0.464500000000  0.659000000000
      H   0.301600000000  0.035500000000  0.841000000000
      H   0.698400000000  0.964500000000  0.841000000000
      H   0.198400000000  0.535500000000  0.659000000000
      H   0.535500000000  0.801600000000  0.341000000000
      H   0.035500000000  0.698400000000  0.159000000000
      H   0.281700000000  0.230300000000  0.062600000000
      H   0.781700000000  0.269700000000  0.437400000000
      H   0.730300000000  0.781700000000  0.562600000000
      H   0.230300000000  0.718300000000  0.937400000000
      H   0.769700000000  0.281700000000  0.937400000000
      H   0.269700000000  0.218300000000  0.562600000000
      H   0.218300000000  0.730300000000  0.437400000000
      H   0.718300000000  0.769700000000  0.062600000000
      H   0.142700000000  0.328600000000  0.943000000000
      H   0.642700000000  0.171400000000  0.557000000000
      H   0.828600000000  0.642700000000  0.443000000000
      H   0.328600000000  0.857300000000  0.057000000000
      H   0.671400000000  0.142700000000  0.057000000000
      H   0.171400000000  0.357300000000  0.443000000000
      H   0.357300000000  0.828600000000  0.557000000000
      H   0.857300000000  0.671400000000  0.943000000000
    &END COORD
  &END SUBSYS
&END FORCE_EVAL

&MOTION
  &CELL_OPT
    OPTIMIZER BFGS
    MAX_ITER 200
    EXTERNAL_PRESSURE 0.0
  &END CELL_OPT
&END MOTION
