 # Version information for this restart file 
 # current date 2026-05-23 22:52:48.597
 # current working dir /home/kuehne88/periodic-gfn2-benchmarks/X23b/runs/cellopt_gamma/GFN2/adamantane_GFN2_gamma_cellopt
 # Program compiled at                                       2026-05-23 22:05:08
 # Program compiled on                                                spark-c86c
 # Program compiled for                                                  aarch64
 # Source code revision number                                        0622d442e4
 &GLOBAL
   PRINT_LEVEL LOW
   PROJECT_NAME "adamantane_GFN2_gamma_cell_opt"
   RUN_TYPE CELL_OPT
 &END GLOBAL
 &MOTION
   &CELL_OPT
     OPTIMIZER BFGS
     MAX_ITER 800
     STEP_START_VAL 200
     EXTERNAL_PRESSURE  0.0000000000000000E+000
   &END CELL_OPT
 &END MOTION
 &FORCE_EVAL
   METHOD QS
   STRESS_TENSOR ANALYTICAL
   &DFT
     &SCF
       MAX_SCF 300
       EPS_SCF  1.0000000000000001E-009
       SCF_GUESS MOPAC
       &MIXING T
         METHOD DIRECT_P_MIXING
         ALPHA  2.0000000000000001E-001
       &END MIXING
     &END SCF
     &QS
       EPS_DEFAULT  9.9999999999999998E-013
       METHOD XTB
       &XTB
         GFN_TYPE TBLITE
         &TBLITE T
           METHOD GFN2
           ACCURACY  1.0000000000000001E-001
         &END TBLITE
       &END XTB
     &END QS
   &END DFT
   &SUBSYS
     &CELL
       A  7.5654688340039025E+000  0.0000000000000000E+000  0.0000000000000000E+000
       B -2.3886695916946524E-005  7.5654687801121403E+000  0.0000000000000000E+000
       C  1.2540092575487973E-006  9.5143075113749276E-006  7.8752635405135596E+000
       PERIODIC XYZ
       MULTIPLE_UNIT_CELL 1 1 1
     &END CELL
     &COORD
       C  4.1793209317551407E-007  9.9999969030810409E-001  2.2475428121850105E-001
       C  5.0000042893596508E-001  5.0000043173604725E-001  2.7525458617539295E-001
       C  5.0000118934518989E-001  4.9999986090271559E-001  7.2475428451715718E-001
       C  1.2408930605385493E-006  1.5149534167069582E-007  7.7525459322526558E-001
       C  9.5701435389772516E-001  1.5910533967990040E-001  1.1193354848799442E-001
       C  4.5700859712270120E-001  3.4089144122722748E-001  3.8806762521769356E-001
       C  6.5910521668212674E-001  4.5701447366074960E-001  6.1193346457582742E-001
       C  1.5910841603520290E-001  4.2991147729703215E-002  8.8806766538835213E-001
       C  8.4089122637708258E-001  9.5700857520326521E-001  8.8806742088387447E-001
       C  3.4089425909498250E-001  5.4298570821454228E-001  6.1193373490279845E-001
       C  5.4299118632337429E-001  6.5910864360078802E-001  3.8806747611757425E-001
       C  4.2985538185610919E-002  8.4089455763335264E-001  1.1193361019872135E-001
       C  1.1521045490553403E-001  2.0278395952893494E-001 -8.4764861449465709E-004
       C  6.1520700280826557E-001  2.9721638186952232E-001  5.0084990823008879E-001
       C  7.0278448387984593E-001  6.1520972368391980E-001  4.9915281135840184E-001
       C  2.0278422235730134E-001  8.8479373277541107E-001  8.4940806348296591E-004
       C  7.9721589848702501E-001  1.1520677365793716E-001  8.4965553458605082E-004
       C  2.9721567826387013E-001  3.8478981546389668E-001  4.9915268410261793E-001
       C  3.8479395499944313E-001  7.0278457492502744E-001  5.0084901676082472E-001
       C  8.8479049492817397E-001  7.9721509207003771E-001 -8.4671375076024035E-004
       H  1.1241129270873214E-001  3.0150842639326506E-002  3.0706312564148391E-001
       H  6.1240845151115875E-001  4.6985031063838389E-001  1.9293235844475246E-001
       H  5.3015108403410027E-001  6.1241132945277510E-001  8.0706289299036993E-001
       H  3.0149940292442740E-002  8.8759148507553787E-001  6.9293267984781848E-001
       H  9.6985017457358369E-001  1.1240873573350590E-001  6.9293235312535895E-001
       H  4.6984891869548867E-001  3.8758839952637664E-001  8.0706311285230736E-001
       H  3.8759123672322610E-001  5.3015005887137945E-001  1.9293271610366236E-001
       H  8.8758837774691901E-001  9.6984870182492322E-001  3.0706286054706078E-001
       H  9.2618322447034429E-001  2.7349663151139209E-001  1.9241844655124840E-001
       H  4.2618362152885947E-001  2.2650163008464091E-001  3.0758368328434482E-001
       H  7.7349641849966300E-001  4.2618356721498063E-001  6.9241827444315118E-001
       H  2.7349827353691081E-001  7.3815997856780100E-002  8.0758379427713123E-001
       H  7.2650126729906772E-001  9.2618364904942441E-001  8.0758330781162324E-001
       H  2.2650302431184641E-001  5.7381672623458757E-001  6.9241888410919683E-001
       H  5.7381598269580214E-001  7.7349862770986588E-001  3.0758342421936663E-001
       H  7.3816398754909265E-002  7.2650318635330347E-001  1.9241874425818897E-001
       H  2.2753877465658012E-001  2.3826449692630486E-001  7.9297022359360619E-002
       H  7.2753611859759448E-001  2.6173729776408294E-001  4.2069897363089243E-001
       H  7.3826441335090631E-001  7.2753881622443006E-001  5.7929696542709608E-001
       H  2.3826261252436284E-001  7.7246385906873793E-001  9.2069907395564410E-001
       H  7.6173691629361084E-001  2.2753619457292745E-001  9.2069885470877766E-001
       H  2.6173510439389258E-001  2.7246116459319586E-001  5.7929726944349569E-001
       H  2.7246378471522070E-001  7.3826300572229697E-001  4.2069899146323386E-001
       H  7.7246116736969639E-001  7.6173519566496695E-001  7.9297182501391283E-002
       H  8.4088115688313952E-002  3.1635508439972643E-001  9.1792829479821858E-001
       H  5.8408743510085426E-001  1.8364181968755858E-001  5.8207007169558622E-001
       H  8.1635509740782219E-001  5.8408821028180735E-001  4.1792842513968814E-001
       H  3.1635818609810445E-001  9.1591236114385066E-001  8.2069908561202373E-002
       H  6.8364178864454161E-001  8.4087720077075295E-002  8.2069594037602986E-002
       H  1.8364490761061572E-001  4.1591163659834296E-001  4.1792886076313435E-001
       H  4.1591210104557097E-001  8.1635828052681225E-001  5.8206949281654485E-001
       H  9.1591152766476458E-001  6.8364490160420521E-001  9.1792894759718102E-001
       SCALED T
     &END COORD
     &TOPOLOGY
       NUMBER_OF_ATOMS 52
       MULTIPLE_UNIT_CELL 1 1 1
     &END TOPOLOGY
   &END SUBSYS
 &END FORCE_EVAL
