DMC-ICE13 ice II; Cartesian 2x2x2 supercell
1.0
14.246678360000001 0.000000000000000 -6.082308300000000
-9.210131640000000 10.869283680000001 -6.082308300000000
0.000000000000000 0.000000000000000 15.490717880000000
H O
192 96
Cartesian
6.417944000000000 10.248042999999999 8.693522000000000
6.417944000000000 10.248042999999999 16.438880940000001
1.812878180000000 15.682684840000000 5.652367849999999
1.812878180000000 15.682684840000000 13.397726790000000
13.541283180000001 10.248042999999999 5.652367849999999
13.541283180000001 10.248042999999999 13.397726790000000
8.936217360000001 15.682684840000000 2.611213700000000
8.936217360000001 15.682684840000000 10.356572640000000
6.623366000000000 11.303845000000001 9.806830000000000
6.623366000000000 11.303845000000001 17.552188940000001
2.018300180000000 16.738486840000000 6.765675849999999
2.018300180000000 16.738486840000000 14.511034790000000
13.746705179999999 11.303845000000001 6.765675849999999
13.746705179999999 11.303845000000001 14.511034790000000
9.141639359999999 16.738486840000000 3.724521699999999
9.141639359999999 16.738486840000000 11.469880640000000
12.768371000000000 7.403543000000000 12.051133000000000
12.768371000000000 7.403543000000000 19.796491939999999
8.163305180000000 12.838184840000000 9.009978850000000
8.163305180000000 12.838184840000000 16.755337789999999
19.891710180000000 7.403543000000000 9.009978850000000
19.891710180000000 7.403543000000000 16.755337789999999
15.286644360000000 12.838184840000000 5.968824700000000
15.286644360000000 12.838184840000000 13.714183640000000
13.091172000000000 7.319880000000000 13.594135000000000
13.091172000000000 7.319880000000000 21.339493940000001
8.486106180000000 12.754521840000001 10.552980849999999
8.486106180000000 12.754521840000001 18.298339790000000
20.214511180000002 7.319880000000000 10.552980849999999
20.214511180000002 7.319880000000000 18.298339790000000
15.609445360000000 12.754521840000001 7.511826699999999
15.609445360000000 12.754521840000001 15.257185639999999
10.646870000000000 6.138815000000000 15.718164000000000
10.646870000000000 6.138815000000000 23.463522940000001
6.041804180000000 11.573456840000000 12.677009849999999
6.041804180000000 11.573456840000000 20.422368790000000
17.770209180000002 6.138815000000000 12.677009849999999
17.770209180000002 6.138815000000000 20.422368790000000
13.165143360000000 11.573456840000000 9.635855700000000
13.165143360000000 11.573456840000000 17.381214640000000
11.934880000000000 6.978175000000000 15.899630999999999
11.934880000000000 6.978175000000000 23.644989939999999
7.329814180000000 12.412816840000001 12.858476849999999
7.329814180000000 12.412816840000001 20.603835789999998
19.058219180000002 6.978175000000000 12.858476849999999
19.058219180000002 6.978175000000000 20.603835789999998
14.453153360000000 12.412816840000001 9.817322699999998
14.453153360000000 12.412816840000001 17.562681640000001
11.270740999999999 9.144830000000001 8.628221999999999
11.270740999999999 9.144830000000001 16.373580940000000
6.665675179999999 14.579471840000000 5.587067849999999
6.665675179999999 14.579471840000000 13.332426790000000
18.394080180000000 9.144830000000001 5.587067849999999
18.394080180000000 9.144830000000001 13.332426790000000
13.789014359999999 14.579471840000000 2.545913699999999
13.789014359999999 14.579471840000000 10.291272639999999
12.582812000000001 9.337194000000000 7.771747000000000
12.582812000000001 9.337194000000000 15.517105940000000
7.977746180000000 14.771835840000001 4.730592850000001
7.977746180000000 14.771835840000001 12.475951790000000
19.706151179999999 9.337194000000000 4.730592850000001
19.706151179999999 9.337194000000000 12.475951790000000
15.101085360000001 14.771835840000001 1.689438700000000
15.101085360000001 14.771835840000001 9.434797639999999
14.802765000000001 6.708601000000000 7.562427000000000
14.802765000000001 6.708601000000000 15.307785939999999
10.197699180000001 12.143242839999999 4.521272849999999
10.197699180000001 12.143242839999999 12.266631790000000
21.926104180000003 6.708601000000000 4.521272849999999
21.926104180000003 6.708601000000000 12.266631790000000
17.321038360000003 12.143242839999999 1.480118699999999
17.321038360000003 12.143242839999999 9.225477639999999
14.894140000000000 8.233870000000000 7.314282000000000
14.894140000000000 8.233870000000000 15.059640940000001
10.289074180000000 13.668511840000001 4.273127850000000
10.289074180000000 13.668511840000001 12.018486790000001
22.017479180000002 8.233870000000000 4.273127850000000
22.017479180000002 8.233870000000000 12.018486790000001
17.412413360000002 13.668511840000001 1.231973700000000
17.412413360000002 13.668511840000001 8.977332640000000
9.024283000000000 9.127933000000001 12.084565000000000
9.024283000000000 9.127933000000001 19.829923940000000
4.419217180000000 14.562574840000000 9.043410849999999
4.419217180000000 14.562574840000000 16.788769790000000
16.147622179999999 9.127933000000001 9.043410849999999
16.147622179999999 9.127933000000001 16.788769790000000
11.542556360000001 14.562574840000000 6.002256699999999
11.542556360000001 14.562574840000000 13.747615639999999
7.961228000000000 10.253330999999999 11.775600000000001
7.961228000000000 10.253330999999999 19.520958940000000
3.356162180000000 15.687972840000000 8.734445850000000
3.356162180000000 15.687972840000000 16.479804790000003
15.084567180000001 10.253330999999999 8.734445850000000
15.084567180000001 10.253330999999999 16.479804790000003
10.479501360000000 15.687972840000000 5.693291700000001
10.479501360000000 15.687972840000000 13.438650640000001
15.710703000000001 7.055802000000000 13.206108000000000
15.710703000000001 7.055802000000000 20.951466940000000
11.105637180000000 12.490443840000001 10.164953850000000
11.105637180000000 12.490443840000001 17.910312789999999
22.834042180000001 7.055802000000000 10.164953850000000
22.834042180000001 7.055802000000000 17.910312789999999
18.228976360000001 12.490443840000001 7.123799700000000
18.228976360000001 12.490443840000001 14.869158640000000
15.505281000000000 6.000000000000000 12.092800000000000
15.505281000000000 6.000000000000000 19.838158940000000
10.900215180000000 11.434641840000001 9.051645850000000
10.900215180000000 11.434641840000001 16.797004790000003
22.628620179999999 6.000000000000000 9.051645850000000
22.628620179999999 6.000000000000000 16.797004790000003
18.023554359999999 11.434641840000001 6.010491700000000
18.023554359999999 11.434641840000001 13.755850640000000
9.360275000000000 9.900302999999999 9.848497000000000
9.360275000000000 9.900302999999999 17.593855940000001
4.755209180000000 15.334944839999999 6.807342850000000
4.755209180000000 15.334944839999999 14.552701790000000
16.483614180000000 9.900302999999999 6.807342850000000
16.483614180000000 9.900302999999999 14.552701790000000
11.878548360000000 15.334944839999999 3.766188700000000
11.878548360000000 15.334944839999999 11.511547640000000
9.037475000000001 9.983966000000001 8.305495000000001
9.037475000000001 9.983966000000001 16.050853940000000
4.432409180000001 15.418607840000000 5.264340850000000
4.432409180000001 15.418607840000000 13.009699790000001
16.160814180000003 9.983966000000001 5.264340850000000
16.160814180000003 9.983966000000001 13.009699790000001
11.555748360000001 15.418607840000000 2.223186700000000
11.555748360000001 15.418607840000000 9.968545640000000
11.481776999999999 11.165030000000000 6.181465000000000
11.481776999999999 11.165030000000000 13.926823940000000
6.876711179999999 16.599671839999999 3.140310850000000
6.876711179999999 16.599671839999999 10.885669790000001
18.605116180000000 11.165030000000000 3.140310850000000
18.605116180000000 11.165030000000000 10.885669790000001
14.000050359999999 16.599671839999999 0.099156700000000
14.000050359999999 16.599671839999999 7.844515640000000
10.193766000000000 10.325670000000001 6.000000000000000
10.193766000000000 10.325670000000001 13.745358939999999
5.588700180000000 15.760311840000000 2.958845850000000
5.588700180000000 15.760311840000000 10.704204790000000
17.317105179999999 10.325670000000001 2.958845850000000
17.317105179999999 10.325670000000001 10.704204790000000
12.712039360000000 15.760311840000000 -0.082308300000000
12.712039360000000 15.760311840000000 7.663050640000000
10.857906000000000 8.159015999999999 13.271407999999999
10.857906000000000 8.159015999999999 21.016766940000000
6.252840180000000 13.593657839999999 10.230253849999999
6.252840180000000 13.593657839999999 17.975612790000000
17.981245180000002 8.159015999999999 10.230253849999999
17.981245180000002 8.159015999999999 17.975612790000000
13.376179360000000 13.593657839999999 7.189099699999999
13.376179360000000 13.593657839999999 14.934458639999999
9.545835000000000 7.966651000000000 14.127882000000000
9.545835000000000 7.966651000000000 21.873240939999999
4.940769180000000 13.401292840000000 11.086727849999999
4.940769180000000 13.401292840000000 18.832086789999998
16.669174179999999 7.966651000000000 11.086727849999999
16.669174179999999 7.966651000000000 18.832086789999998
12.064108360000001 13.401292840000000 8.045573699999998
12.064108360000001 13.401292840000000 15.790932639999999
7.325882000000000 10.595243999999999 14.337203000000001
7.325882000000000 10.595243999999999 22.082561940000001
2.720816180000000 16.029885839999999 11.296048850000000
2.720816180000000 16.029885839999999 19.041407790000001
14.449221180000000 10.595243999999999 11.296048850000000
14.449221180000000 10.595243999999999 19.041407790000001
9.844155360000000 16.029885839999999 8.254894700000001
9.844155360000000 16.029885839999999 16.000253640000000
7.234507000000000 9.069974999999999 14.585348000000000
7.234507000000000 9.069974999999999 22.330706939999999
2.629441180000000 14.504616840000001 11.544193849999999
2.629441180000000 14.504616840000001 19.289552790000002
14.357846179999999 9.069974999999999 11.544193849999999
14.357846179999999 9.069974999999999 19.289552790000002
9.752780359999999 14.504616840000001 8.503039699999999
9.752780359999999 14.504616840000001 16.248398639999998
13.104364000000000 8.175912000000000 9.815064000000000
13.104364000000000 8.175912000000000 17.560422939999999
8.499298180000000 13.610553840000001 6.773909849999999
8.499298180000000 13.610553840000001 14.519268790000000
20.227703179999999 8.175912000000000 6.773909849999999
20.227703179999999 8.175912000000000 14.519268790000000
15.622637360000001 13.610553840000001 3.732755699999999
15.622637360000001 13.610553840000001 11.478114639999999
14.167419000000001 7.050514000000000 10.124029999999999
14.167419000000001 7.050514000000000 17.869388940000000
9.562353180000001 12.485155840000001 7.082875849999999
9.562353180000001 12.485155840000001 14.828234790000000
21.290758180000001 7.050514000000000 7.082875849999999
21.290758180000001 7.050514000000000 14.828234790000000
16.685692360000001 12.485155840000001 4.041721699999999
16.685692360000001 12.485155840000001 11.787080639999999
6.000000000000000 10.583874000000000 9.532840999999999
6.000000000000000 10.583874000000000 17.278199940000000
1.394934180000000 16.018515839999999 6.491686849999999
1.394934180000000 16.018515839999999 14.237045790000000
13.123339180000000 10.583874000000000 6.491686849999999
13.123339180000000 10.583874000000000 14.237045790000000
8.518273360000000 16.018515839999999 3.450532699999999
8.518273360000000 16.018515839999999 11.195891639999999
12.346223999999999 7.289505000000000 12.943956000000000
12.346223999999999 7.289505000000000 20.689314939999999
7.741158179999999 12.724146840000000 9.902801849999999
7.741158179999999 12.724146840000000 17.648160789999999
19.469563180000002 7.289505000000000 9.902801849999999
19.469563180000002 7.289505000000000 17.648160789999999
14.864497360000000 12.724146840000000 6.861647700000000
14.864497360000000 12.724146840000000 14.607006640000000
11.625491000000000 6.037128000000000 15.872685000000001
11.625491000000000 6.037128000000000 23.618043940000000
7.020425180000000 11.471769840000000 12.831530850000000
7.020425180000000 11.471769840000000 20.576889790000003
18.748830179999999 6.037128000000000 12.831530850000000
18.748830179999999 6.037128000000000 20.576889790000003
14.143764360000000 11.471769840000000 9.790376699999999
14.143764360000000 11.471769840000000 17.535735639999999
12.164871000000000 8.749098000000000 8.448549999999999
12.164871000000000 8.749098000000000 16.193908940000000
7.559805180000000 14.183739840000001 5.407395849999999
7.559805180000000 14.183739840000001 13.152754789999999
19.288210180000000 8.749098000000000 5.407395849999999
19.288210180000000 8.749098000000000 13.152754789999999
14.683144360000000 14.183739840000001 2.366241699999999
14.683144360000000 14.183739840000001 10.111600639999999
14.666007000000000 7.389451000000000 6.848524000000000
14.666007000000000 7.389451000000000 14.593882940000000
10.060941180000000 12.824092840000000 3.807369850000000
10.060941180000000 12.824092840000000 11.552728790000000
21.789346180000003 7.389451000000000 3.807369850000000
21.789346180000003 7.389451000000000 11.552728790000000
17.184280360000002 12.824092840000000 0.766215700000000
17.184280360000002 12.824092840000000 8.511574639999999
8.513522999999999 9.554169000000000 11.345784999999999
8.513522999999999 9.554169000000000 19.091143939999998
3.908457179999999 14.988810839999999 8.304630849999999
3.908457179999999 14.988810839999999 16.049989789999998
15.636862180000000 9.554169000000000 8.304630849999999
15.636862180000000 9.554169000000000 16.049989789999998
11.031796360000000 14.988810839999999 5.263476699999999
11.031796360000000 14.988810839999999 13.008835639999999
16.128647000000001 6.719971000000000 12.366789000000001
16.128647000000001 6.719971000000000 20.112147940000000
11.523581180000001 12.154612840000000 9.325634850000000
11.523581180000001 12.154612840000000 17.070993790000003
23.251986180000003 6.719971000000000 9.325634850000000
23.251986180000003 6.719971000000000 17.070993790000003
18.646920360000003 12.154612840000000 6.284480700000000
18.646920360000003 12.154612840000000 14.029839640000001
9.782423000000000 10.014341000000000 8.955674000000000
9.782423000000000 10.014341000000000 16.701032940000001
5.177357180000000 15.448982839999999 5.914519850000000
5.177357180000000 15.448982839999999 13.659878790000000
16.905762180000000 10.014341000000000 5.914519850000000
16.905762180000000 10.014341000000000 13.659878790000000
12.300696360000000 15.448982839999999 2.873365700000000
12.300696360000000 15.448982839999999 10.618724640000000
10.503155000000000 11.266717000000000 6.026945000000000
10.503155000000000 11.266717000000000 13.772303940000000
5.898089179999999 16.701358840000001 2.985790850000000
5.898089179999999 16.701358840000001 10.731149790000000
17.626494180000002 11.266717000000000 2.985790850000000
17.626494180000002 11.266717000000000 10.731149790000000
13.021428360000000 16.701358840000001 -0.055363300000000
13.021428360000000 16.701358840000001 7.689995640000000
9.963775999999999 8.554748000000000 13.451079000000000
9.963775999999999 8.554748000000000 21.196437939999999
5.358710179999999 13.989389840000001 10.409924849999999
5.358710179999999 13.989389840000001 18.155283789999999
17.087115179999998 8.554748000000000 10.409924849999999
17.087115179999998 8.554748000000000 18.155283789999999
12.482049360000000 13.989389840000001 7.368770700000000
12.482049360000000 13.989389840000001 15.114129640000000
7.462640000000000 9.914394000000000 15.051105000000000
7.462640000000000 9.914394000000000 22.796463939999999
2.857574180000000 15.349035839999999 12.009950849999999
2.857574180000000 15.349035839999999 19.755309789999998
14.585979180000001 9.914394000000000 12.009950849999999
14.585979180000001 9.914394000000000 19.755309789999998
9.980913360000001 15.349035839999999 8.968796699999999
9.980913360000001 15.349035839999999 16.714155640000001
13.615124000000000 7.749676000000000 10.553845000000001
13.615124000000000 7.749676000000000 18.299203940000002
9.010058180000000 13.184317840000000 7.512690850000000
9.010058180000000 13.184317840000000 15.258049790000001
20.738463180000000 7.749676000000000 7.512690850000000
20.738463180000000 7.749676000000000 15.258049790000001
16.133397360000000 13.184317840000000 4.471536700000001
16.133397360000000 13.184317840000000 12.216895640000001
