# DMC13_GXTB_PROTOCOL dmc13-gxtb-spglib-reduced-v1
&GLOBAL
  PRINT_LEVEL LOW
  PROJECT ice_Ih_GXTB_gamma
  RUN_TYPE ENERGY
&END GLOBAL

&FORCE_EVAL
  METHOD Quickstep
  &DFT
    &QS
      EPS_DEFAULT 1.0E-12
      METHOD xTB
      &XTB
        GFN_TYPE TBLITE
        &TBLITE
          METHOD GXTB
          ACCURACY 0.1
        &END TBLITE
        SCC_MIXER TBLITE
        &TBLITE_MIXER
          ITERATIONS 300
        &END TBLITE_MIXER
      &END XTB
    &END QS
    &SCF
      EPS_SCF 1.0E-9
      MAX_SCF 300
      SCF_GUESS MOPAC
      &MIXING
        METHOD DIRECT_P_MIXING
        ALPHA 0.2
      &END MIXING
      &PRINT
        &RESTART OFF
        &END RESTART
      &END PRINT
    &END SCF
  &END DFT
  &SUBSYS
    &CELL
      CANONICALIZE TRUE
      PERIODIC XYZ
      A 7.678093000000 0.000000000000 0.000000000000
      B 3.839046000000 6.649423000000 0.000000000000
      C 0.000000000000 0.000000000000 7.234567000000
    &END CELL
    &COORD
      SCALED
      H   0.000007000000  0.334718000000  0.199799000000
      H   0.665252000000  0.000010000000  0.199780000000
      H   0.334714000000  0.665261000000  0.199791000000
      H   0.334760000000  0.999976000000  0.699786000000
      H   0.999980000000  0.665239000000  0.699800000000
      H   0.665240000000  0.334755000000  0.699799000000
      H   0.544461000000  0.000006000000  0.019584000000
      H  -0.000011000000  0.455520000000  0.019605000000
      H   0.455505000000  0.544480000000  0.019594000000
      H   0.455543000000  0.999980000000  0.519584000000
      H   0.999998000000  0.544446000000  0.519600000000
      H   0.544461000000  0.455524000000  0.519592000000
      H   0.332240000000  0.879481000000  0.984486000000
      H   0.211731000000  1.120507000000  0.984481000000
      H   0.879462000000  0.788265000000  0.984489000000
      H   0.788248000000  0.332255000000  0.984498000000
      H   0.667731000000  0.211748000000  0.984486000000
      H   0.120526000000  0.211703000000  0.484497000000
      H   0.667762000000  1.120506000000  0.484488000000
      H   0.788272000000  0.879477000000  0.484480000000
      H   0.211722000000  0.667743000000  0.484495000000
      H   0.332240000000  0.788252000000  0.484486000000
      H  -0.120503000000  0.332222000000  0.484499000000
      H   1.120486000000  0.667750000000  0.984491000000
      O   0.000009000000  0.331330000000  0.061616000000
      O   0.668637000000  0.000012000000  0.061595000000
      O   0.331326000000  0.668660000000  0.061608000000
      O   0.331370000000  0.999972000000  0.561601000000
      O   0.668637000000  0.331348000000  0.561616000000
      O   0.335676000000  0.999992000000  0.936746000000
      O   0.664294000000  0.335703000000  0.936768000000
      O   0.000012000000  0.335655000000  0.436771000000
      O   0.664333000000  0.999995000000  0.436740000000
      O   0.335670000000  0.664304000000  0.436760000000
      O   0.999979000000  0.668634000000  0.561617000000
      O   0.999974000000  0.664306000000  0.942299010000
    &END COORD
  &END SUBSYS
&END FORCE_EVAL
