DMC-ICE13 ice VI; Cartesian 2x2x2 supercell
1.0
12.454064794910000 -0.032785574794000 0.008090837034000
-0.101918523658000 12.455637042648000 0.023907546926000
0.068323403594000 -0.039513689348000 11.653798618810001
H O
160 80
Cartesian
2.709738835266305 1.508480876386175 0.029839042788471
2.743900537063305 1.488724031712175 5.856738352193472
2.658779573437305 7.736299397710175 0.041792816251471
2.692941275234305 7.716542553036175 5.868692125656472
8.936771232721306 1.492088088989175 0.033884461305471
8.970932934518306 1.472331244315175 5.860783770710472
8.885811970892306 7.719906610313175 0.045838234768471
8.919973672689306 7.700149765639175 5.872737544173471
3.246712792519051 4.605428703867755 5.737281443867790
3.280874494316051 4.585671859193755 11.564180753272790
3.195753530690051 10.833247225191755 5.749235217330790
3.229915232487051 10.813490380517756 11.576134526735791
9.473745189974050 4.589035916470755 5.741326862384790
9.507906891771050 4.569279071796755 11.568226171789791
9.422785928145050 10.816854437794756 5.753280635847790
9.456947629942050 10.797097593120755 11.580179945252791
0.158730535734869 1.484656052799478 0.036790442036825
0.192892237531869 1.464899208125478 5.863689751441826
0.107771273905869 7.712474574123478 0.048744215499825
0.141932975702869 7.692717729449478 5.875643524904826
6.385762933189869 1.468263265402478 0.040835860553825
6.419924634986869 1.448506420728478 5.867735169958826
6.334803671360869 7.696081786726478 0.052789634016825
6.368965373157869 7.676324942052478 5.879688943421826
5.797809566714232 4.628953438010894 5.730216198466852
5.831971268511232 4.609196593336894 11.557115507871853
5.746850304885232 10.856771959334894 5.742169971929853
5.781012006682232 10.837015114660893 11.569069281334853
12.024841964169232 4.612560650613895 5.734261616983853
12.059003665966232 4.592803805939894 11.561160926388853
11.973882702340232 10.840379171937894 5.746215390446852
12.008044404137232 10.820622327263894 11.573114699851853
1.402838521519490 2.235886110487778 2.007602213737871
1.437000223316490 2.216129265813778 7.834501523142872
1.351879259690490 8.463704631811778 2.019555987200871
1.386040961487490 8.443947787137779 7.846455296605872
7.629870918974490 2.219493323090779 2.011647632254871
7.664032620771490 2.199736478416778 7.838546941659872
7.578911657145490 8.447311844414779 2.023601405717872
7.613073358942490 8.427554999740778 7.850500715122871
4.553372517605603 3.877932751781067 3.759492827588916
4.587534219402603 3.858175907107067 9.586392136993917
4.502413255776603 10.105751273105067 3.771446601051916
4.536574957573603 10.085994428431068 9.598345910456917
10.780404915060604 3.861539964384067 3.763538246105916
10.814566616857604 3.841783119710067 9.590437555510917
10.729445653231604 10.089358485708068 3.775492019568916
10.763607355028604 10.069601641034067 9.602391328973916
1.436350820898473 0.699055075446015 1.976812495214456
1.470512522695473 0.679298230772015 7.803711804619456
1.385391559069473 6.926873596770015 1.988766268677456
1.419553260866473 6.907116752096015 7.815665578082457
7.663383218353474 0.682662288049015 1.980857913731456
7.697544920150474 0.662905443375015 7.807757223136456
7.612423956524474 6.910480809373015 1.992811687194456
7.646585658321474 6.890723964699015 7.819710996599456
4.520030433781455 5.414792844236075 3.790238270054575
4.554192135578455 5.395035999562075 9.617137579459575
4.469071171952455 11.642611365560075 3.802192043517575
4.503232873749455 11.622854520886076 9.629091352922575
10.747062831236455 5.398400056839075 3.794283688571574
10.781224533033456 5.378643212165075 9.621182997976575
10.696103569407455 11.626218578163076 3.806237462034575
10.730265271204456 11.606461733489075 9.633136771439574
1.446651698405844 4.156029657033588 3.616444909370394
1.480813400202844 4.136272812359588 9.443344218775394
1.395692436576844 10.383848178357589 3.628398682833394
1.429854138373844 10.364091333683588 9.455297992238394
7.673684095860843 4.139636869636588 3.620490327887393
7.707845797657844 4.119880024962588 9.447389637292394
7.622724834031843 10.367455390960588 3.632444101350394
7.656886535828844 10.347698546286587 9.459343410755395
4.509854792907134 1.957735419740408 2.150581672247966
4.544016494704135 1.937978575066408 7.977480981652967
4.458895531078134 8.185553941064409 2.162535445710966
4.493057232875135 8.165797096390408 7.989434755115967
10.736887190362134 1.941342632343408 2.154627090764966
10.771048892159135 1.921585787669408 7.981526400169967
10.685927928533134 8.169161153667408 2.166580864227966
10.720089630330135 8.149404308993409 7.993480173632966
4.129690594437553 1.506498584463924 5.048162702138849
4.163852296234554 1.486741739789924 10.875062011543850
4.078731332608553 7.734317105787924 5.060116475601849
4.112893034405554 7.714560261113924 10.887015785006849
10.356722991892553 1.490105797066924 5.052208120655849
10.390884693689554 1.470348952392924 10.879107430060849
10.305763730063553 7.717924318390924 5.064161894118849
10.339925431860554 7.698167473716924 10.891061203523849
1.826846258859333 4.607239156511478 0.719106838146407
1.861007960656333 4.587482311837478 6.546006147551407
1.775886997030333 10.835057677835479 0.731060611609406
1.810048698827333 10.815300833161478 6.557959921014407
8.053878656314332 4.590846369114479 0.723152256663407
8.088040358111332 4.571089524440478 6.550051566068407
8.002919394485332 10.818664890438479 0.735106030126407
8.037081096282332 10.798908045764477 6.562005339531407
2.178617208608999 2.797799260219972 4.042816118344390
2.212778910406000 2.778042415545972 9.869715427749391
2.127657946779999 9.025617781543971 4.054769891807391
2.161819648577000 9.005860936869972 9.881669201212391
8.405649606063999 2.781406472822972 4.046861536861391
8.439811307861000 2.761649628148972 9.873760846266391
8.354690344234999 9.009224994146972 4.058815310324390
8.388852046032000 8.989468149472973 9.885714619729391
3.778013659390149 3.316061720057298 1.724272207132186
3.812175361187149 3.296304875383298 7.551171516537186
3.727054397561149 9.543880241381299 1.736225980595186
3.761216099358149 9.524123396707298 7.563125290000187
10.005046056845149 3.299668932660298 1.728317625649186
10.039207758642149 3.279912087986298 7.555216935054187
9.954086795016149 9.527487453984298 1.740271399112186
9.988248496813149 9.507730609310299 7.567170708517186
2.235410621462523 0.208788063395967 4.045686199092178
2.269572323259523 0.189031218721967 9.872585508497178
2.184451359633523 6.436606584719967 4.057639972555179
2.218613061430523 6.416849740045967 9.884539281960180
8.462443018917522 0.192395275998967 4.049731617609178
8.496604720714522 0.172638431324967 9.876630927014180
8.411483757088522 6.420213797322967 4.061685391072178
8.445645458885522 6.400456952648967 9.888584700477178
3.721133807164701 5.904959976980465 1.721284030420757
3.755295508961702 5.885203132306465 7.548183339825758
3.670174545335701 12.132778498304464 1.733237803883757
3.704336247132701 12.113021653630465 7.560137113288758
9.948166204619701 5.888567189583465 1.725329448937757
9.982327906416701 5.868810344909465 7.552228758342758
9.897206942790701 12.116385710907466 1.737283222400757
9.931368644587701 12.096628866233466 7.564182531805757
0.703991585329861 0.151939458024085 4.066786820830940
0.738153287126861 0.132182613350085 9.893686130235940
0.653032323500861 6.379757979348085 4.078740594293940
0.687194025297861 6.360001134674085 9.905639903698940
6.931023982784861 0.135546670627085 4.070832239347940
6.965185684581861 0.115789825953085 9.897731548752940
6.880064720955861 6.363365191951085 4.082786012810939
6.914226422752861 6.343608347277085 9.909685322215939
5.252550608603736 5.961880499544090 1.700192136374622
5.286712310400736 5.942123654870090 7.527091445779623
5.201591346774736 12.189699020868090 1.712145909837622
5.235753048571736 12.169942176194091 7.539045219242623
11.479583006058736 5.945487712147091 1.704237554891622
11.513744707855736 5.925730867473090 7.531136864296623
11.428623744229736 12.173306233471092 1.716191328354622
11.462785446026736 12.153549388797090 7.543090637759622
0.146084139533422 2.202311198329656 4.491877296465884
0.180245841330422 2.182554353655656 10.318776605870884
0.095124877704422 8.430129719653657 4.503831069928884
0.129286579501422 8.410372874979656 10.330730379333884
6.373116536988422 2.185918410932656 4.495922714982884
6.407278238785422 2.166161566258656 10.322822024387884
6.322157275159422 8.413736932256656 4.507876488445883
6.356318976956422 8.393980087582655 10.334775797850885
5.810373062700976 3.911369456477770 1.275143387377285
5.844534764497976 3.891612611803770 7.102042696782285
5.759413800871976 10.139187977801770 1.287097160840285
5.793575502668976 10.119431133127771 7.113996470245286
12.037405460155977 3.894976669080771 1.279188805894285
12.071567161952977 3.875219824406770 7.106088115299285
11.986446198326977 10.122795190404771 1.291142579357285
12.020607900123977 10.103038345730770 7.118041888762285
1.427690192875410 1.477843289576588 1.367285093198145
1.461851894672410 1.458086444902588 7.194184402603145
1.376730931046410 7.705661810900588 1.379238866661145
1.410892632843410 7.685904966226587 7.206138176066146
7.654722590330410 1.461450502179588 1.371330511715145
7.688884292127410 1.441693657505588 7.198229821120146
7.603763328501410 7.689269023503588 1.383284285178145
7.637925030298410 7.669512178829588 7.210183594583145
4.528371606986142 4.636001543295603 4.399764393954015
4.562533308783142 4.616244698621603 10.226663703359016
4.477412345157142 10.863820064619603 4.411718167417015
4.511574046954142 10.844063219945603 10.238617476822014
10.755404004441143 4.619608755898604 4.403809812471015
10.789565706238143 4.599851911224603 10.230709121876014
10.704444742612143 10.847427277222604 4.415763585934014
10.738606444409143 10.827670432548604 10.242662895339015
1.393044129354168 3.166246819741688 3.567575451347342
1.427205831151168 3.146489975067687 9.394474760752342
1.342084867525168 9.394065341065687 3.579529224810342
1.376246569322168 9.374308496391688 9.406428534215344
7.620076526809168 3.149854032344688 3.571620869864342
7.654238228606168 3.130097187670688 9.398520179269344
7.569117264980168 9.377672553668688 3.583574643327343
7.603278966777168 9.357915708994687 9.410473952732342
4.563567152028038 2.947511674784844 2.199479291926454
4.597728853825038 2.927754830110844 8.026378601331455
4.512607890199038 9.175330196108845 2.211433065389454
4.546769591996038 9.155573351434844 8.038332374794454
10.790599549483037 2.931118887387845 2.203524710443454
10.824761251280037 2.911362042713844 8.030424019848454
10.739640287654037 9.158937408711845 2.215478483906454
10.773801989451037 9.139180564037844 8.042377793311454
1.427140494925804 5.964298385677502 3.621947269262378
1.461302196722804 5.944541541003502 9.448846578667379
1.376181233096804 12.192116907001502 3.633901042725378
1.410342934893804 12.172360062327503 9.460800352130379
7.654172892380804 5.947905598280502 3.625992687779378
7.688334594177804 5.928148753606502 9.452891997184379
7.603213630551804 12.175724119604503 3.637946461242378
7.637375332348804 12.155967274930502 9.464845770647377
4.529375087887112 0.149560372724013 2.144955777043920
4.563536789684112 0.129803528050013 7.971855086448921
4.478415826058112 6.377378894048013 2.156909550506920
4.512577527855112 6.357622049374013 7.983808859911921
10.756407485342113 0.133167585327013 2.149001195560920
10.790569187139113 0.113410740653013 7.975900504965921
10.705448223513113 6.360986106651013 2.160954969023920
10.739609925310113 6.341229261977013 7.987854278428919
5.936768805064625 1.451826611797403 5.001805364989355
5.970930506861626 1.432069767123403 10.828704674394356
5.885809543235625 7.679645133121403 5.013759138452356
5.919971245032626 7.659888288447403 10.840658447857356
12.163801202519625 1.435433824400403 5.005850783506355
12.197962904316626 1.415676979726403 10.832750092911356
12.112841940690625 7.663252345724404 5.017804556969355
12.147003642487626 7.643495501050403 10.844703866374356
0.019624094240089 4.661937605073565 0.765262265523563
0.053785796037089 4.642180760399565 6.592161574928562
-0.031335167588911 10.889756126397565 0.777216038986563
0.002826534208089 10.869999281723565 6.604115348391563
6.246656491695089 4.645544817676566 0.769307684040563
6.280818193492089 4.625787973002566 6.596206993445563
6.195697229866089 10.873363339000566 0.781261457503563
6.229858931663089 10.853606494326566 6.608160766908563
3.142100646097280 1.506507959810627 4.952131784533760
3.176262347894280 1.486751115136627 10.779031093938761
3.091141384268280 7.734326481134627 4.964085557996761
3.125303086065280 7.714569636460627 10.790984867401761
9.369133043552280 1.490115172413627 4.956177203050760
9.403294745349280 1.470358327739627 10.783076512455761
9.318173781723280 7.717933693737628 4.968130976513760
9.352335483520280 7.698176849063627 10.795030285918759
2.814433509020703 4.607206329932199 0.815033801684830
2.848595210817703 4.587449485258199 6.641933111089831
2.763474247191703 10.835024851256200 0.826987575147830
2.797635948988703 10.815268006582199 6.653886884552831
9.041465906475702 4.590813542535200 0.819079220201830
9.075627608272702 4.571056697861200 6.645978529606831
8.990506644646702 10.818632063859200 0.831032993664830
9.024668346443702 10.798875219185199 6.657932303069830
