# DMC13_GXTB_PROTOCOL dmc13-gxtb-spglib-reduced-v1
&GLOBAL
  PRINT_LEVEL LOW
  PROJECT ice_VII_GXTB_k333
  RUN_TYPE ENERGY
&END GLOBAL

&FORCE_EVAL
  METHOD Quickstep
  &DFT
    &QS
      EPS_DEFAULT 1.0E-12
      METHOD xTB
      &XTB
        GFN_TYPE TBLITE
        &TBLITE
          METHOD GXTB
          ACCURACY 0.1
        &END TBLITE
        SCC_MIXER TBLITE
        &TBLITE_MIXER
          ITERATIONS 300
        &END TBLITE_MIXER
      &END XTB
    &END QS
    &KPOINTS
      SCHEME MACDONALD 2 2 2 0.25 0.25 0.25
      SYMMETRY T
      FULL_GRID F
      SYMMETRY_BACKEND SPGLIB
      SYMMETRY_REDUCTION_METHOD SPGLIB
    &END KPOINTS
    &SCF
      EPS_SCF 1.0E-9
      MAX_SCF 300
      SCF_GUESS MOPAC
      &MIXING
        METHOD DIRECT_P_MIXING
        ALPHA 0.2
      &END MIXING
      &PRINT
        &RESTART OFF
        &END RESTART
      &END PRINT
    &END SCF
  &END DFT
  &SUBSYS
    &CELL
      CANONICALIZE TRUE
      PERIODIC XYZ
      A 10.554869338533 0.000005898004 0.000000313332
      B 0.000003932080 7.036477436385 -0.000000175915
      C 0.000000017428 -0.000000035754 3.325532814296
    &END CELL
    &COORD
      SCALED
      H   0.052331300116  0.078496528088  0.173610195346
      H   0.385664633449  0.078496528088  0.173610195346
      H   0.718997966783  0.078496528088  0.173610195346
      H   0.052331300116  0.578496528088  0.173610195346
      H   0.385664633449  0.578496528088  0.173610195346
      H   0.718997966783  0.578496528088  0.173610195346
      H   0.281002035502  0.421503491825  0.173610154456
      H   0.614335368835  0.421503491825  0.173610154456
      H   0.947668702168  0.421503491825  0.173610154456
      H   0.281002035502  0.921503491825  0.173610154456
      H   0.614335368835  0.921503491825  0.173610154456
      H   0.947668702168  0.921503491825  0.173610154456
      H   0.218997486415  0.171504198223  0.673611774489
      H   0.552330819748  0.171504198223  0.673611774489
      H   0.885664153081  0.171504198223  0.673611774489
      H   0.218997486415  0.671504198223  0.673611774489
      H   0.552330819748  0.671504198223  0.673611774489
      H   0.885664153081  0.671504198223  0.673611774489
      H   0.114335872301  0.328495757653  0.673611601040
      H   0.447669205635  0.328495757653  0.673611601040
      H   0.781002538968  0.328495757653  0.673611601040
      H   0.114335872301  0.828495757653  0.673611601040
      H   0.447669205635  0.828495757653  0.673611601040
      H   0.781002538968  0.828495757653  0.673611601040
      O   0.999999980468  0.000000026541  0.992778803385
      O   0.333333313802  0.000000026541  0.992778803385
      O   0.666666647135  0.000000026541  0.992778803385
      O   0.999999980468  0.500000026541  0.992778803385
      O   0.333333313802  0.500000026541  0.992778803385
      O   0.666666647135  0.500000026541  0.992778803385
      O   0.166666658531  0.249999997670  0.492777471284
      O   0.499999991864  0.249999997670  0.492777471284
      O   0.833333325198  0.249999997670  0.492777471284
      O   0.166666658531  0.749999997670  0.492777471284
      O   0.499999991864  0.749999997670  0.492777471284
      O   0.833333325198  0.749999997670  0.492777471284
    &END COORD
  &END SUBSYS
&END FORCE_EVAL
