&GLOBAL
  PRINT_LEVEL LOW
  PROJECT acetic_acid_GFN1_gamma_energy
  RUN_TYPE ENERGY
&END GLOBAL

&FORCE_EVAL
  METHOD Quickstep
  STRESS_TENSOR ANALYTICAL
  &DFT
    &QS
      EPS_DEFAULT 1.0E-12
      METHOD xTB
      &XTB
        GFN_TYPE TBLITE
        &TBLITE
          METHOD GFN1
          ACCURACY 0.1
        &END TBLITE
      &END XTB
    &END QS
    &SCF
      EPS_SCF 1.0E-9
      MAX_SCF 300
      SCF_GUESS MOPAC
      &MIXING
        METHOD DIRECT_P_MIXING
        ALPHA 0.2
      &END MIXING
    &END SCF
  &END DFT
  &SUBSYS
    &CELL
      PERIODIC XYZ
      A 13.151000000000 0.000000000000 0.000000000000
      B 0.000000000000 3.923000000000 0.000000000000
      C 0.000000000000 0.000000000000 5.762000000000
    &END CELL
    &COORD
      SCALED
      O   0.373520000000  0.888500000000  0.000000000000
      O   0.873520000000  0.611500000000  0.000000000000
      O   0.126480000000  0.388500000000  0.500000000000
      O   0.626480000000  0.111500000000  0.500000000000
      H   0.323000000000  0.941000000000  0.921000000000
      H   0.823000000000  0.559000000000  0.921000000000
      H   0.177000000000  0.441000000000  0.421000000000
      H   0.677000000000  0.059000000000  0.421000000000
      O   0.246940000000  0.610900000000  0.170200000000
      O   0.746940000000  0.889100000000  0.170200000000
      O   0.253060000000  0.110900000000  0.670200000000
      O   0.753060000000  0.389100000000  0.670200000000
      C   0.335290000000  0.702000000000  0.169700000000
      C   0.835290000000  0.798000000000  0.169700000000
      C   0.164710000000  0.202000000000  0.669700000000
      C   0.664710000000  0.298000000000  0.669700000000
      C   0.410680000000  0.616000000000  0.353700000000
      C   0.910680000000  0.884000000000  0.353700000000
      C   0.089320000000  0.116000000000  0.853700000000
      C   0.589320000000  0.384000000000  0.853700000000
      H   0.377000000000  0.503000000000  0.482000000000
      H   0.877000000000  0.997000000000  0.482000000000
      H   0.123000000000  0.003000000000  0.982000000000
      H   0.623000000000  0.497000000000  0.982000000000
      H   0.465000000000  0.502000000000  0.298000000000
      H   0.965000000000  0.998000000000  0.298000000000
      H   0.035000000000  0.002000000000  0.798000000000
      H   0.535000000000  0.498000000000  0.798000000000
      H   0.442000000000  0.823000000000  0.421000000000
      H   0.942000000000  0.677000000000  0.421000000000
      H   0.058000000000  0.323000000000  0.921000000000
      H   0.558000000000  0.177000000000  0.921000000000
    &END COORD
  &END SUBSYS
&END FORCE_EVAL
