DMC-ICE13 ice VII; Cartesian 4x4x4 supercell
1.0
42.219477354132003 0.000023592016000 0.000001253328000
0.000015728320000 28.145909745539999 -0.000000703660000
0.000000069712000 -0.000000143016000 13.302131257184000
H O
1536 768
Cartesian
0.552350346720244 0.552339351168732 0.577346404107816
0.552350364148244 0.552339315414732 3.902879218403816
0.552350381576243 0.552339279660732 7.228412032699816
0.552350399004244 0.552339243906732 10.553944846995815
0.552354278800244 7.588816787553732 0.577346228192816
0.552354296228244 7.588816751799732 3.902879042488816
0.552354313656244 7.588816716045732 7.228411856784816
0.552354331084243 7.588816680291732 10.553944671080815
0.552358210880244 14.625294223938731 0.577346052277816
0.552358228308244 14.625294188184730 3.902878866573816
0.552358245736243 14.625294152430731 7.228411680869816
0.552358263164244 14.625294116676731 10.553944495165815
0.552362142960244 21.661771660323733 0.577345876362816
0.552362160388243 21.661771624569734 3.902878690658816
0.552362177816244 21.661771588815732 7.228411504954816
0.552362195244244 21.661771553061733 10.553944319250816
11.107219685253245 0.552345249172732 0.577346717439816
11.107219702681245 0.552345213418732 3.902879531735816
11.107219720109246 0.552345177664732 7.228412346031816
11.107219737537244 0.552345141910732 10.553945160327816
11.107223617333245 7.588822685557732 0.577346541524816
11.107223634761246 7.588822649803732 3.902879355820816
11.107223652189244 7.588822614049732 7.228412170116815
11.107223669617245 7.588822578295732 10.553944984412816
11.107227549413246 14.625300121942731 0.577346365609816
11.107227566841244 14.625300086188730 3.902879179905816
11.107227584269245 14.625300050434731 7.228411994201815
11.107227601697245 14.625300014680731 10.553944808497816
11.107231481493246 21.661777558327735 0.577346189694816
11.107231498921244 21.661777522573733 3.902879003990816
11.107231516349245 21.661777486819734 7.228411818286816
11.107231533777245 21.661777451065735 10.553944632582816
21.662089023786244 0.552351147176732 0.577347030771816
21.662089041214244 0.552351111422732 3.902879845067816
21.662089058642245 0.552351075668732 7.228412659363816
21.662089076070245 0.552351039914732 10.553945473659816
21.662092955866243 7.588828583561732 0.577346854856816
21.662092973294243 7.588828547807732 3.902879669152816
21.662092990722243 7.588828512053732 7.228412483448816
21.662093008150244 7.588828476299732 10.553945297744816
21.662096887946245 14.625306019946731 0.577346678941816
21.662096905374245 14.625305984192732 3.902879493237816
21.662096922802245 14.625305948438731 7.228412307533816
21.662096940230246 14.625305912684730 10.553945121829814
21.662100820026243 21.661783456331733 0.577346503026816
21.662100837454243 21.661783420577734 3.902879317322816
21.662100854882244 21.661783384823732 7.228412131618816
21.662100872310244 21.661783349069733 10.553944945914814
32.216958362319247 0.552357045180732 0.577347344103816
32.216958379747247 0.552357009426732 3.902880158399816
32.216958397175247 0.552356973672732 7.228412972695816
32.216958414603248 0.552356937918732 10.553945786991815
32.216962294399245 7.588834481565732 0.577347168188816
32.216962311827245 7.588834445811732 3.902879982484816
32.216962329255246 7.588834410057732 7.228412796780816
32.216962346683246 7.588834374303732 10.553945611076815
32.216966226479244 14.625311917950730 0.577346992273816
32.216966243907244 14.625311882196732 3.902879806569816
32.216966261335244 14.625311846442731 7.228412620865816
32.216966278763245 14.625311810688730 10.553945435161815
32.216970158559242 21.661789354335735 0.577346816358816
32.216970175987242 21.661789318581732 3.902879630654816
32.216970193415243 21.661789282827733 7.228412444950815
32.216970210843243 21.661789247073735 10.553945259246815
4.070640126227725 0.552341317170065 0.577346508551816
4.070640143655726 0.552341281416065 3.902879322847816
4.070640161083725 0.552341245662065 7.228412137143816
4.070640178511725 0.552341209908065 10.553944951439815
4.070644058307725 7.588818753555065 0.577346332636816
4.070644075735725 7.588818717801066 3.902879146932816
4.070644093163725 7.588818682047065 7.228411961228816
4.070644110591725 7.588818646293065 10.553944775524815
4.070647990387725 14.625296189940064 0.577346156721816
4.070648007815725 14.625296154186064 3.902878971017816
4.070648025243726 14.625296118432065 7.228411785313816
4.070648042671725 14.625296082678064 10.553944599609816
4.070651922467725 21.661773626325065 0.577345980806816
4.070651939895725 21.661773590571066 3.902878795102816
4.070651957323725 21.661773554817064 7.228411609398816
4.070651974751725 21.661773519063065 10.553944423694816
14.625509464760725 0.552347215174065 0.577346821883816
14.625509482188725 0.552347179420065 3.902879636179816
14.625509499616726 0.552347143666065 7.228412450475816
14.625509517044726 0.552347107912065 10.553945264771816
14.625513396840727 7.588824651559065 0.577346645968816
14.625513414268728 7.588824615805065 3.902879460264816
14.625513431696724 7.588824580051066 7.228412274560815
14.625513449124725 7.588824544297065 10.553945088856816
14.625517328920726 14.625302087944064 0.577346470053816
14.625517346348726 14.625302052190063 3.902879284349816
14.625517363776726 14.625302016436065 7.228412098645816
14.625517381204727 14.625301980682064 10.553944912941816
14.625521261000728 21.661779524329067 0.577346294138816
14.625521278428725 21.661779488575064 3.902879108434816
14.625521295856725 21.661779452821065 7.228411922730816
14.625521313284725 21.661779417067066 10.553944737026816
25.180378803293728 0.552353113178065 0.577347135215816
25.180378820721728 0.552353077424065 3.902879949511815
25.180378838149728 0.552353041670065 7.228412763807816
25.180378855577729 0.552353005916065 10.553945578103816
25.180382735373726 7.588830549563065 0.577346959300816
25.180382752801727 7.588830513809065 3.902879773596815
25.180382770229727 7.588830478055065 7.228412587892816
25.180382787657727 7.588830442301066 10.553945402188816
25.180386667453728 14.625307985948064 0.577346783385816
25.180386684881729 14.625307950194065 3.902879597681816
25.180386702309729 14.625307914440064 7.228412411977816
25.180386719737729 14.625307878686064 10.553945226273814
25.180390599533727 21.661785422333065 0.577346607470816
25.180390616961727 21.661785386579066 3.902879421766816
25.180390634389727 21.661785350825063 7.228412236062816
25.180390651817728 21.661785315071064 10.553945050358815
35.735248141826723 0.552359011182065 0.577347448547816
35.735248159254724 0.552358975428065 3.902880262843816
35.735248176682724 0.552358939674065 7.228413077139816
35.735248194110724 0.552358903920065 10.553945891435815
35.735252073906722 7.588836447567065 0.577347272632816
35.735252091334722 7.588836411813065 3.902880086928816
35.735252108762722 7.588836376059065 7.228412901224816
35.735252126190723 7.588836340305066 10.553945715520815
35.735256005986727 14.625313883952064 0.577347096717816
35.735256023414728 14.625313848198065 3.902879911013816
35.735256040842728 14.625313812444064 7.228412725309816
35.735256058270728 14.625313776690064 10.553945539605815
35.735259938066726 21.661791320337066 0.577346920802816
35.735259955494726 21.661791284583064 3.902879735098816
35.735259972922726 21.661791248829065 7.228412549394815
35.735259990350727 21.661791213075066 10.553945363690815
7.588929905745762 0.552343283171399 0.577346612995816
7.588929923173763 0.552343247417399 3.902879427291816
7.588929940601762 0.552343211663399 7.228412241587816
7.588929958029762 0.552343175909399 10.553945055883815
7.588933837825762 7.588820719556399 0.577346437080816
7.588933855253762 7.588820683802399 3.902879251376816
7.588933872681762 7.588820648048398 7.228412065672816
7.588933890109762 7.588820612294398 10.553944879968816
7.588937769905762 14.625298155941397 0.577346261165816
7.588937787333762 14.625298120187397 3.902879075461816
7.588937804761763 14.625298084433398 7.228411889757816
7.588937822189762 14.625298048679397 10.553944704053816
7.588941701985762 21.661775592326400 0.577346085250816
7.588941719413762 21.661775556572401 3.902878899546816
7.588941736841762 21.661775520818399 7.228411713842816
7.588941754269762 21.661775485064400 10.553944528138816
18.143799244278764 0.552349181175399 0.577346926327816
18.143799261706764 0.552349145421399 3.902879740623816
18.143799279134765 0.552349109667399 7.228412554919816
18.143799296562761 0.552349073913399 10.553945369215816
18.143803176358762 7.588826617560398 0.577346750412816
18.143803193786763 7.588826581806399 3.902879564708816
18.143803211214763 7.588826546052399 7.228412379004816
18.143803228642764 7.588826510298398 10.553945193300816
18.143807108438764 14.625304053945397 0.577346574497816
18.143807125866761 14.625304018191397 3.902879388793816
18.143807143294762 14.625303982437398 7.228412203089816
18.143807160722762 14.625303946683397 10.553945017385816
18.143811040518763 21.661781490330402 0.577346398582816
18.143811057946763 21.661781454576399 3.902879212878816
18.143811075374764 21.661781418822400 7.228412027174816
18.143811092802764 21.661781383068401 10.553944841470816
28.698668582811763 0.552355079179399 0.577347239659816
28.698668600239763 0.552355043425399 3.902880053955815
28.698668617667764 0.552355007671399 7.228412868251816
28.698668635095764 0.552354971917399 10.553945682547816
28.698672514891761 7.588832515564398 0.577347063744816
28.698672532319762 7.588832479810399 3.902879878040816
28.698672549747762 7.588832444056399 7.228412692336816
28.698672567175763 7.588832408302399 10.553945506632816
28.698676446971763 14.625309951949397 0.577346887829816
28.698676464399764 14.625309916195398 3.902879702125816
28.698676481827764 14.625309880441398 7.228412516421816
28.698676499255765 14.625309844687397 10.553945330717815
28.698680379051762 21.661787388334400 0.577346711914816
28.698680396479762 21.661787352580401 3.902879526210816
28.698680413907763 21.661787316826398 7.228412340506816
28.698680431335763 21.661787281072399 10.553945154802815
39.253537921344765 0.552360977183399 0.577347552991816
39.253537938772766 0.552360941429399 3.902880367287816
39.253537956200766 0.552360905675399 7.228413181583816
39.253537973628767 0.552360869921399 10.553945995879815
39.253541853424764 7.588838413568398 0.577347377076816
39.253541870852764 7.588838377814398 3.902880191372815
39.253541888280765 7.588838342060399 7.228413005668816
39.253541905708765 7.588838306306399 10.553945819964815
39.253545785504762 14.625315849953397 0.577347201161816
39.253545802932763 14.625315814199398 3.902880015457816
39.253545820360763 14.625315778445398 7.228412829753816
39.253545837788764 14.625315742691397 10.553945644049815
39.253549717584761 21.661793286338401 0.577347025246816
39.253549735012761 21.661793250584399 3.902879839542816
39.253549752440762 21.661793214830400 7.228412653838816
39.253549769868762 21.661793179076401 10.553945468134815
0.552352312760244 4.070578069361232 0.577346316150316
0.552352330188244 4.070578033607232 3.902879130446316
0.552352347616244 4.070577997853231 7.228411944742316
0.552352365044244 4.070577962099232 10.553944759038314
0.552356244840244 11.107055505746231 0.577346140235316
0.552356262268244 11.107055469992233 3.902878954531316
0.552356279696244 11.107055434238230 7.228411768827316
0.552356297124244 11.107055398484231 10.553944583123315
0.552360176920244 18.143532942131230 0.577345964320316
0.552360194348244 18.143532906377231 3.902878778616316
0.552360211776244 18.143532870623233 7.228411592912316
0.552360229204244 18.143532834869230 10.553944407208315
0.552364109000244 25.180010378516233 0.577345788405316
0.552364126428244 25.180010342762234 3.902878602701316
0.552364143856244 25.180010307008232 7.228411416997316
0.552364161284244 25.180010271254233 10.553944231293315
11.107221651293244 4.070583967365232 0.577346629482316
11.107221668721245 4.070583931611232 3.902879443778316
11.107221686149245 4.070583895857232 7.228412258074316
11.107221703577244 4.070583860103231 10.553945072370315
11.107225583373245 11.107061403750231 0.577346453567316
11.107225600801245 11.107061367996231 3.902879267863316
11.107225618229243 11.107061332242232 7.228412082159315
11.107225635657244 11.107061296488231 10.553944896455315
11.107229515453245 18.143538840135232 0.577346277652316
11.107229532881243 18.143538804381230 3.902879091948316
11.107229550309244 18.143538768627231 7.228411906244316
11.107229567737244 18.143538732873232 10.553944720540315
11.107233447533245 25.180016276520234 0.577346101737316
11.107233464961244 25.180016240766232 3.902878916033316
11.107233482389244 25.180016205012233 7.228411730329316
11.107233499817244 25.180016169258234 10.553944544625315
21.662090989826247 4.070589865369231 0.577346942814316
21.662091007254247 4.070589829615232 3.902879757110315
21.662091024682248 4.070589793861232 7.228412571406316
21.662091042110248 4.070589758107232 10.553945385702315
21.662094921906245 11.107067301754231 0.577346766899316
21.662094939334246 11.107067266000232 3.902879581195315
21.662094956762246 11.107067230246232 7.228412395491316
21.662094974190246 11.107067194492231 10.553945209787315
21.662098853986247 18.143544738139230 0.577346590984316
21.662098871414248 18.143544702385231 3.902879405280316
21.662098888842248 18.143544666631232 7.228412219576316
21.662098906270248 18.143544630877230 10.553945033872314
21.662102786066246 25.180022174524233 0.577346415069316
21.662102803494246 25.180022138770234 3.902879229365316
21.662102820922247 25.180022103016231 7.228412043661316
21.662102838350247 25.180022067262232 10.553944857957314
32.216960328359242 4.070595763373231 0.577347256146316
32.216960345787243 4.070595727619231 3.902880070442316
32.216960363215243 4.070595691865232 7.228412884738316
32.216960380643243 4.070595656111232 10.553945699034314
32.216964260439241 11.107073199758231 0.577347080231316
32.216964277867241 11.107073164004230 3.902879894527316
32.216964295295242 11.107073128250232 7.228412708823316
32.216964312723242 11.107073092496233 10.553945523119314
32.216968192519246 18.143550636143232 0.577346904316316
32.216968209947247 18.143550600389233 3.902879718612316
32.216968227375247 18.143550564635230 7.228412532908316
32.216968244803248 18.143550528881232 10.553945347204314
32.216972124599245 25.180028072528234 0.577346728401316
32.216972142027245 25.180028036774232 3.902879542697316
32.216972159455246 25.180028001020233 7.228412356993315
32.216972176883246 25.180027965266234 10.553945171289314
4.070642092267725 4.070580035362565 0.577346420594316
4.070642109695726 4.070579999608565 3.902879234890316
4.070642127123725 4.070579963854565 7.228412049186316
4.070642144551726 4.070579928100565 10.553944863482315
4.070646024347726 11.107057471747565 0.577346244679316
4.070646041775725 11.107057435993564 3.902879058975316
4.070646059203725 11.107057400239565 7.228411873271316
4.070646076631725 11.107057364485565 10.553944687567315
4.070649956427725 18.143534908132565 0.577346068764316
4.070649973855725 18.143534872378563 3.902878883060316
4.070649991283726 18.143534836624564 7.228411697356316
4.070650008711725 18.143534800870565 10.553944511652315
4.070653888507725 25.180012344517564 0.577345892849316
4.070653905935726 25.180012308763565 3.902878707145315
4.070653923363725 25.180012273009563 7.228411521441316
4.070653940791725 25.180012237255564 10.553944335737315
14.625511430800726 4.070585933366565 0.577346733926316
14.625511448228727 4.070585897612565 3.902879548222316
14.625511465656727 4.070585861858565 7.228412362518316
14.625511483084725 4.070585826104565 10.553945176814315
14.625515362880726 11.107063369751565 0.577346558011316
14.625515380308727 11.107063333997566 3.902879372307316
14.625515397736725 11.107063298243565 7.228412186603316
14.625515415164726 11.107063262489564 10.553945000899315
14.625519294960727 18.143540806136564 0.577346382096316
14.625519312388725 18.143540770382565 3.902879196392316
14.625519329816726 18.143540734628566 7.228412010688316
14.625519347244726 18.143540698874563 10.553944824984315
14.625523227040727 25.180018242521566 0.577346206181316
14.625523244468726 25.180018206767564 3.902879020477316
14.625523261896726 25.180018171013565 7.228411834773316
14.625523279324726 25.180018135259566 10.553944649069315
25.180380769333727 4.070591831370565 0.577347047258316
25.180380786761727 4.070591795616565 3.902879861554315
25.180380804189728 4.070591759862565 7.228412675850316
25.180380821617728 4.070591724108565 10.553945490146315
25.180384701413725 11.107069267755564 0.577346871343316
25.180384718841726 11.107069232001564 3.902879685639316
25.180384736269726 11.107069196247565 7.228412499935316
25.180384753697727 11.107069160493566 10.553945314231315
25.180388633493727 18.143546704140565 0.577346695428316
25.180388650921728 18.143546668386566 3.902879509724316
25.180388668349728 18.143546632632564 7.228412324020316
25.180388685777729 18.143546596878565 10.553945138316314
25.180392565573726 25.180024140525564 0.577346519513316
25.180392583001726 25.180024104771565 3.902879333809316
25.180392600429727 25.180024069017563 7.228412148105316
25.180392617857727 25.180024033263564 10.553944962401314
35.735250107866726 4.070597729374565 0.577347360590316
35.735250125294726 4.070597693620565 3.902880174886316
35.735250142722727 4.070597657866565 7.228412989182316
35.735250160150727 4.070597622112565 10.553945803478314
35.735254039946724 11.107075165759564 0.577347184675316
35.735254057374725 11.107075130005565 3.902879998971315
35.735254074802725 11.107075094251565 7.228412813267316
35.735254092230726 11.107075058497564 10.553945627563314
35.735257972026730 18.143552602144563 0.577347008760316
35.735257989454723 18.143552566390564 3.902879823056316
35.735258006882731 18.143552530636565 7.228412637352316
35.735258024310724 18.143552494882563 10.553945451648314
35.735261904106721 25.180030038529566 0.577346832845316
35.735261921534729 25.180030002775563 3.902879647141316
35.735261938962722 25.180029967021564 7.228412461437316
35.735261956390730 25.180029931267566 10.553945275733314
7.588931871785762 4.070582001363898 0.577346525038316
7.588931889213763 4.070581965609898 3.902879339334316
7.588931906641762 4.070581929855898 7.228412153630316
7.588931924069763 4.070581894101898 10.553944967926315
7.588935803865763 11.107059437748898 0.577346349123316
7.588935821293762 11.107059401994899 3.902879163419316
7.588935838721762 11.107059366240897 7.228411977715316
7.588935856149762 11.107059330486898 10.553944792011315
7.588939735945762 18.143536874133897 0.577346173208316
7.588939753373762 18.143536838379898 3.902878987504316
7.588939770801763 18.143536802625899 7.228411801800316
7.588939788229762 18.143536766871897 10.553944616096315
7.588943668025762 25.180014310518899 0.577345997293316
7.588943685453763 25.180014274764901 3.902878811589316
7.588943702881762 25.180014239010898 7.228411625885316
7.588943720309762 25.180014203256899 10.553944440181315
18.143801210318763 4.070587899367898 0.577346838370316
18.143801227746764 4.070587863613898 3.902879652666316
18.143801245174764 4.070587827859899 7.228412466962316
18.143801262602764 4.070587792105898 10.553945281258315
18.143805142398762 11.107065335752898 0.577346662455316
18.143805159826762 11.107065299998897 3.902879476751316
18.143805177254762 11.107065264244898 7.228412291047315
18.143805194682763 11.107065228490898 10.553945105343315
18.143809074478764 18.143542772137899 0.577346486540316
18.143809091906761 18.143542736383896 3.902879300836316
18.143809109334761 18.143542700629897 7.228412115132315
18.143809126762761 18.143542664875898 10.553944929428315
18.143813006558766 25.180020208522901 0.577346310625316
18.143813023986763 25.180020172768899 3.902879124921316
18.143813041414763 25.180020137014900 7.228411939217315
18.143813058842763 25.180020101260901 10.553944753513315
28.698670548851766 4.070593797371898 0.577347151702316
28.698670566279766 4.070593761617898 3.902879965998316
28.698670583707766 4.070593725863898 7.228412780294315
28.698670601135767 4.070593690109899 10.553945594590315
28.698674480931764 11.107071233756898 0.577346975787316
28.698674498359765 11.107071198002899 3.902879790083316
28.698674515787765 11.107071162248898 7.228412604379315
28.698674533215765 11.107071126494898 10.553945418675315
28.698678413011763 18.143548670141897 0.577346799872316
28.698678430439763 18.143548634387898 3.902879614168316
28.698678447867763 18.143548598633899 7.228412428464315
28.698678465295764 18.143548562879896 10.553945242760314
28.698682345091761 25.180026106526899 0.577346623957316
28.698682362519762 25.180026070772900 3.902879438253316
28.698682379947762 25.180026035018898 7.228412252549315
28.698682397375762 25.180025999264899 10.553945066845314
39.253539887384761 4.070599695375898 0.577347465034316
39.253539904812762 4.070599659621898 3.902880279330316
39.253539922240762 4.070599623867898 7.228413093626315
39.253539939668762 4.070599588113899 10.553945907922314
39.253543819464760 11.107077131760898 0.577347289119316
39.253543836892760 11.107077096006897 3.902880103415316
39.253543854320760 11.107077060252898 7.228412917711315
39.253543871748761 11.107077024498899 10.553945732007314
39.253547751544765 18.143554568145898 0.577347113204316
39.253547768972766 18.143554532391899 3.902879927500316
39.253547786400766 18.143554496637897 7.228412741796316
39.253547803828766 18.143554460883898 10.553945556092314
39.253551683624764 25.180032004530901 0.577346937289316
39.253551701052764 25.180031968776898 3.902879751585316
39.253551718480765 25.180031933022899 7.228412565881316
39.253551735908765 25.180031897268901 10.553945380177314
2.965941428996549 2.965901460727974 0.577346279436568
2.965941446424549 2.965901424973973 3.902879093732568
2.965941463852549 2.965901389219974 7.228411908028567
2.965941481280549 2.965901353465974 10.553944722324568
2.965945361076549 10.002378897112973 0.577346103521568
2.965945378504549 10.002378861358974 3.902878917817568
2.965945395932549 10.002378825604973 7.228411732113567
2.965945413360549 10.002378789850972 10.553944546409568
2.965949293156549 17.038856333497975 0.577345927606568
2.965949310584549 17.038856297743973 3.902878741902568
2.965949328012549 17.038856261989974 7.228411556198568
2.965949345440549 17.038856226235971 10.553944370494568
2.965953225236549 24.075333769882974 0.577345751691568
2.965953242664549 24.075333734128975 3.902878565987568
2.965953260092549 24.075333698374973 7.228411380283568
2.965953277520549 24.075333662620974 10.553944194579568
13.520810767529550 2.965907358731974 0.577346592768568
13.520810784957551 2.965907322977974 3.902879407064568
13.520810802385551 2.965907287223974 7.228412221360568
13.520810819813549 2.965907251469974 10.553945035656568
13.520814699609550 10.002384795116974 0.577346416853568
13.520814717037551 10.002384759362974 3.902879231149568
13.520814734465549 10.002384723608973 7.228412045445567
13.520814751893550 10.002384687854974 10.553944859741568
13.520818631689551 17.038862231501973 0.577346240938568
13.520818649117549 17.038862195747974 3.902879055234568
13.520818666545550 17.038862159993975 7.228411869530567
13.520818683973550 17.038862124239973 10.553944683826568
13.520822563769551 24.075339667886976 0.577346065023568
13.520822581197550 24.075339632132973 3.902878879319568
13.520822598625550 24.075339596378974 7.228411693615567
13.520822616053550 24.075339560624975 10.553944507911568
24.075680106062549 2.965913256735974 0.577346906100568
24.075680123490550 2.965913220981974 3.902879720396568
24.075680140918550 2.965913185227974 7.228412534692567
24.075680158346550 2.965913149473974 10.553945348988568
24.075684038142548 10.002390693120972 0.577346730185568
24.075684055570548 10.002390657366973 3.902879544481568
24.075684072998548 10.002390621612975 7.228412358777567
24.075684090426549 10.002390585858974 10.553945173073568
24.075687970222550 17.038868129505971 0.577346554270568
24.075687987650550 17.038868093751972 3.902879368566568
24.075688005078550 17.038868057997973 7.228412182862567
24.075688022506551 17.038868022243975 10.553944997158567
24.075691902302548 24.075345565890974 0.577346378355568
24.075691919730549 24.075345530136975 3.902879192651568
24.075691937158549 24.075345494382972 7.228412006947567
24.075691954586549 24.075345458628973 10.553944821243567
34.630549444595552 2.965919154739974 0.577347219432568
34.630549462023552 2.965919118985973 3.902880033728568
34.630549479451552 2.965919083231974 7.228412848024568
34.630549496879553 2.965919047477974 10.553945662320567
34.630553376675550 10.002396591124974 0.577347043517568
34.630553394103551 10.002396555370973 3.902879857813568
34.630553411531551 10.002396519616973 7.228412672109568
34.630553428959551 10.002396483862974 10.553945486405567
34.630557308755549 17.038874027509973 0.577346867602568
34.630557326183549 17.038873991755974 3.902879681898568
34.630557343611549 17.038873956001972 7.228412496194568
34.630557361039550 17.038873920247973 10.553945310490567
34.630561240835547 24.075351463894975 0.577346691687568
34.630561258263548 24.075351428140973 3.902879505983568
34.630561275691548 24.075351392386974 7.228412320279567
34.630561293119548 24.075351356632975 10.553945134575567
6.484231208504030 2.965903426729307 0.577346383880568
6.484231225932031 2.965903390975307 3.902879198176568
6.484231243360030 2.965903355221307 7.228412012472567
6.484231260788031 2.965903319467307 10.553944826768568
6.484235140584031 10.002380863114308 0.577346207965568
6.484235158012030 10.002380827360307 3.902879022261568
6.484235175440030 10.002380791606306 7.228411836557568
6.484235192868030 10.002380755852307 10.553944650853568
6.484239072664030 17.038858299499307 0.577346032050568
6.484239090092030 17.038858263745304 3.902878846346568
6.484239107520031 17.038858227991305 7.228411660642568
6.484239124948030 17.038858192237306 10.553944474938568
6.484243004744030 24.075335735884309 0.577345856135568
6.484243022172031 24.075335700130310 3.902878670431567
6.484243039600030 24.075335664376304 7.228411484727568
6.484243057028030 24.075335628622305 10.553944299023568
17.039100547037030 2.965909324733307 0.577346697212568
17.039100564465031 2.965909288979307 3.902879511508567
17.039100581893031 2.965909253225307 7.228412325804568
17.039100599321031 2.965909217471307 10.553945140100568
17.039104479117032 10.002386761118306 0.577346521297568
17.039104496545033 10.002386725364307 3.902879335593568
17.039104513973029 10.002386689610308 7.228412149889567
17.039104531401030 10.002386653856306 10.553944964185568
17.039108411197031 17.038864197503308 0.577346345382568
17.039108428625031 17.038864161749306 3.902879159678568
17.039108446053032 17.038864125995307 7.228411973974567
17.039108463481032 17.038864090241304 10.553944788270568
17.039112343277033 24.075341633888307 0.577346169467568
17.039112360705030 24.075341598134308 3.902878983763568
17.039112378133030 24.075341562380309 7.228411798059567
17.039112395561030 24.075341526626310 10.553944612355568
27.593969885570033 2.965915222737307 0.577347010544568
27.593969902998033 2.965915186983307 3.902879824840568
27.593969920426034 2.965915151229307 7.228412639136567
27.593969937854034 2.965915115475307 10.553945453432569
27.593973817650031 10.002392659122307 0.577346834629568
27.593973835078032 10.002392623368307 3.902879648925568
27.593973852506032 10.002392587614306 7.228412463221567
27.593973869934032 10.002392551860307 10.553945277517569
27.593977749730033 17.038870095507306 0.577346658714568
27.593977767158034 17.038870059753307 3.902879473010568
27.593977784586034 17.038870023999309 7.228412287306567
27.593977802014034 17.038869988245306 10.553945101602567
27.593981681810032 24.075347531892305 0.577346482799568
27.593981699238032 24.075347496138306 3.902879297095568
27.593981716666033 24.075347460384307 7.228412111391568
27.593981734094033 24.075347424630309 10.553944925687567
38.148839224103028 2.965921120741307 0.577347323876568
38.148839241531029 2.965921084987307 3.902880138172568
38.148839258959029 2.965921049233307 7.228412952468568
38.148839276387029 2.965921013479307 10.553945766764567
38.148843156183027 10.002398557126305 0.577347147961568
38.148843173611027 10.002398521372307 3.902879962257567
38.148843191039028 10.002398485618308 7.228412776553568
38.148843208467028 10.002398449864307 10.553945590849567
38.148847088263032 17.038875993511304 0.577346972046568
38.148847105691033 17.038875957757305 3.902879786342567
38.148847123119033 17.038875922003307 7.228412600638568
38.148847140547034 17.038875886249308 10.553945414934567
38.148851020343031 24.075353429896310 0.577346796131568
38.148851037771031 24.075353394142304 3.902879610427568
38.148851055199032 24.075353358388305 7.228412424723567
38.148851072627032 24.075353322634307 10.553945239019567
10.002520988011513 2.965905392730640 0.577346488324568
10.002521005439514 2.965905356976640 3.902879302620568
10.002521022867514 2.965905321222640 7.228412116916568
10.002521040295512 2.965905285468640 10.553944931212568
10.002524920091513 10.002382829115639 0.577346312409568
10.002524937519514 10.002382793361640 3.902879126705568
10.002524954947512 10.002382757607640 7.228411941001568
10.002524972375513 10.002382721853639 10.553944755297568
10.002528852171514 17.038860265500638 0.577346136494568
10.002528869599512 17.038860229746639 3.902878950790568
10.002528887027513 17.038860193992640 7.228411765086568
10.002528904455513 17.038860158238641 10.553944579382568
10.002532784251514 24.075337701885640 0.577345960579568
10.002532801679513 24.075337666131642 3.902878774875568
10.002532819107513 24.075337630377639 7.228411589171568
10.002532836535513 24.075337594623640 10.553944403467568
20.557390326544514 2.965911290734640 0.577346801656568
20.557390343972514 2.965911254980640 3.902879615952568
20.557390361400515 2.965911219226640 7.228412430248568
20.557390378828515 2.965911183472640 10.553945244544568
20.557394258624512 10.002388727119641 0.577346625741568
20.557394276052513 10.002388691365640 3.902879440037568