&GLOBAL
  PRINT_LEVEL LOW
  PROJECT ice_XV_GFN1_k444
  RUN_TYPE ENERGY
&END GLOBAL

&FORCE_EVAL
  METHOD Quickstep
  &DFT
    &QS
      EPS_DEFAULT 1.0E-12
      METHOD xTB
      &XTB
        GFN_TYPE TBLITE
        &TBLITE
          METHOD GFN1
          ACCURACY 0.1
        &END TBLITE
      &END XTB
    &END QS
    &KPOINTS
      SCHEME MACDONALD 4 4 4 0.375 0.375 0.375
      FULL_GRID T
    &END KPOINTS
    &SCF
      EPS_SCF 1.0E-9
      MAX_SCF 300
      SCF_GUESS MOPAC
      &MIXING
        METHOD DIRECT_P_MIXING
        ALPHA 0.2
      &END MIXING
      &PRINT
        &RESTART OFF
        &END RESTART
      &END PRINT
    &END SCF
  &END DFT
  &SUBSYS
    &CELL
      PERIODIC XYZ
      A 6.258463000000 0.000000000000 0.001092000000
      B 0.008756000000 6.270002000000 -0.006567000000
      C 0.000000000000 0.000000000000 5.814608000000
    &END CELL
    &COORD
      SCALED
      H   0.246938000000  0.365195000000  0.351189000000
      H   0.250748000000  0.120022000000  0.346618000000
      H   0.254486000000  0.673857000000  0.625920000000
      H   0.680022000000  0.251295000000  0.872870000000
      H   0.368875000000  0.456547000000  0.700347000000
      H   0.375543000000  1.039945000000  0.701468000000
      H   0.130885000000  1.033403000000  0.705002000000
      H   1.040645000000  0.361422000000  0.776950000000
      H   0.458868000000  0.247942000000  1.011783000000
      H   1.048602000000  0.244336000000  1.012581000000
      H   0.541132000000  0.752058000000 -0.011783000000
      H  -0.048602000000  0.755664000000 -0.012581000000
      H   0.753062000000  0.634805000000  0.648811000000
      H   0.749252000000  0.879978000000  0.653382000000
      H   0.745514000000  0.326143000000  0.374080000000
      H   0.319978000000  0.748705000000  0.127130000000
      H   0.631125000000  0.543453000000  0.299654000000
      H   0.624457000000 -0.039945000000  0.298532000000
      H   0.869115000000 -0.033403000000  0.294998000000
      H  -0.040645000000  0.638578000000  0.223050000000
      O   0.254104000000  0.965453000000  0.627263000000
      O   0.971475000000  0.244485000000  0.863749000000
      O   0.251169000000  0.243887000000  0.241661000000
      O   0.244313000000  0.516373000000  0.617982000000
      O   0.522468000000  0.250316000000  0.856399000000
      O   0.748831000000  0.756113000000  0.758339000000
      O   0.755687000000  0.483627000000  0.382019000000
      O   0.477532000000  0.749684000000  0.143601000000
      O   0.028525000000  0.755515000000  0.136252000000
      O   0.745896000000  0.034547000000  0.372738000000
    &END COORD
  &END SUBSYS
&END FORCE_EVAL
