DMC-ICE13 ice III; Cartesian 3x3x3 supercell
1.0
19.970882731797001 -0.016247957529000 -0.006188884881000
-0.016696841439000 19.677263494031997 -0.126510505008000
0.002484159369000 -0.133222012188000 22.356080643209999
H O
648 324
Cartesian
1.607156918922136 2.270449264150240 1.338872930386932
1.607984972045136 2.226041926754240 8.790899811456933
1.608813025168136 2.181634589358240 16.242926692526932
1.601591305109136 8.829537095494240 1.296702762050932
1.602419358232136 8.785129758098240 8.748729643120933
1.603247411355136 8.740722420702239 16.200756524190933
1.596025691296136 15.388624926838240 1.254532593714933
1.596853744419136 15.344217589442239 8.706559474784934
1.597681797542136 15.299810252046241 16.158586355854933
8.264117829521137 2.265033278307240 1.336809968759932
8.264945882644136 2.220625940911240 8.788836849829933
8.265773935767136 2.176218603515240 16.240863730899932
8.258552215708136 8.824121109651239 1.294639800423932
8.259380268831137 8.779713772255240 8.746666681493933
8.260208321954137 8.735306434859240 16.198693562563932
8.252986601895136 15.383208940995241 1.252469632087932
8.253814655018136 15.338801603599240 8.704496513157933
8.254642708141136 15.294394266203239 16.156523394227932
14.921078740120137 2.259617292464240 1.334747007132932
14.921906793243137 2.215209955068240 8.786773888202934
14.922734846366136 2.170802617672240 16.238800769272935
14.915513126307138 8.818705123808240 1.292576838796933
14.916341179430137 8.774297786412239 8.744603719866932
14.917169232553137 8.729890449016240 16.196630600936935
14.909947512494137 15.377792955152239 1.250406670460932
14.910775565617138 15.333385617756241 8.702433551530932
14.911603618740138 15.288978280360240 16.154460432600935
5.028886222129423 4.281665330357190 5.033918413229319
5.029714275252423 4.237257992961190 12.485945294299320
5.030542328375423 4.192850655565190 19.937972175369318
5.023320608316423 10.840753161701191 4.991748244893319
5.024148661439424 10.796345824305190 12.443775125963320
5.024976714562423 10.751938486909189 19.895802007033318
5.017754994503424 17.399840993045188 4.949578076557319
5.018583047626423 17.355433655649190 12.401604957627320
5.019411100749423 17.311026318253191 19.853631838697318
11.685847132728423 4.276249344514190 5.031855451602319
11.686675185851424 4.231842007118190 12.483882332672319
11.687503238974424 4.187434669722190 19.935909213742320
11.680281518915423 10.835337175858189 4.989685283266319
11.681109572038423 10.790929838462191 12.441712164336320
11.681937625161424 10.746522501066190 19.893739045406321
11.674715905102424 17.394425007202191 4.947515114930319
11.675543958225424 17.350017669806189 12.399541996000320
11.676372011348423 17.305610332410190 19.851568877070321
18.342808043327423 4.270833358671190 5.029792489975319
18.343636096450425 4.226426021275190 12.481819371045319
18.344464149573422 4.182018683879190 19.933846252115320
18.337242429514426 10.829921190015190 4.987622321639319
18.338070482637423 10.785513852619189 12.439649202709319
18.338898535760425 10.741106515223191 19.891676083779320
18.331676815701424 17.389009021359190 4.945452153303319
18.332504868824426 17.344601683963191 12.397479034373319
18.333332921947424 17.300194346567189 19.849505915443320
0.952210944035193 4.872580755154523 3.135141539668227
0.953038997158193 4.828173417758523 10.587168420738227
0.953867050281193 4.783766080362523 18.039195301808228
0.946645330222193 11.431668586498523 3.092971371332228
0.947473383345193 11.387261249102522 10.544998252402227
0.948301436468193 11.342853911706523 17.997025133472228
0.941079716409193 17.990756417842523 3.050801202996227
0.941907769532193 17.946349080446524 10.502828084066227
0.942735822655193 17.901941743050521 17.954854965136228
7.609171854634194 4.867164769311523 3.133078578041228
7.609999907757193 4.822757431915523 10.585105459111228
7.610827960880194 4.778350094519523 18.037132340181227
7.603606240821193 11.426252600655523 3.090908409705227
7.604434293944194 11.381845263259523 10.542935290775228
7.605262347067193 11.337437925863522 17.994962171845227
7.598040627008194 17.985340431999525 3.048738241369227
7.598868680131194 17.940933094603523 10.500765122439226
7.599696733254193 17.896525757207520 17.952792003509227
14.266132765233193 4.861748783468523 3.131015616414227
14.266960818356193 4.817341446072523 10.583042497484229
14.267788871479192 4.772934108676523 18.035069378554226
14.260567151420194 11.420836614812522 3.088845448078227
14.261395204543193 11.376429277416523 10.540872329148227
14.262223257666193 11.332021940020523 17.992899210218226
14.255001537607193 17.979924446156524 3.046675279742227
14.255829590730194 17.935517108760521 10.498702160812227
14.256657643853194 17.891109771364523 17.950729041882227
1.683107434129327 5.528796276596490 0.630077055640021
1.683935487252327 5.484388939200490 8.082103936710022
1.684763540375327 5.439981601804489 15.534130817780021
1.677541820316327 12.087884107940489 0.587906887304021
1.678369873439327 12.043476770544491 8.039933768374022
1.679197926562327 11.999069433148488 15.491960649444021
1.671976206503327 18.646971939284491 0.545736718968021
1.672804259626327 18.602564601888488 7.997763600038022
1.673632312749327 18.558157264492490 15.449790481108021
8.340068344728328 5.523380290753489 0.628014094013021
8.340896397851328 5.478972953357490 8.080040975083021
8.341724450974327 5.434565615961490 15.532067856153020
8.334502730915327 12.082468122097488 0.585843925677021
8.335330784038328 12.038060784701489 8.037870806747021
8.336158837161328 11.993653447305491 15.489897687817020
8.328937117102328 18.641555953441490 0.543673757341021
8.329765170225327 18.597148616045487 7.995700638411021
8.330593223348327 18.552741278649489 15.447727519481020
14.997029255327329 5.517964304910490 0.625951132386021
14.997857308450328 5.473556967514489 8.077978013456022
14.998685361573328 5.429149630118490 15.530004894526021
14.991463641514329 12.077052136254490 0.583780964050021
14.992291694637329 12.032644798858488 8.035807845120020
14.993119747760328 11.988237461462489 15.487834726190021
14.985898027701328 18.636139967598488 0.541610795714021
14.986726080824329 18.591732630202490 7.993637676784021
14.987554133947329 18.547325292806491 15.445664557854021
4.921649653848668 0.960847236165016 4.354656050760100
4.922477706971668 0.916439898769016 11.806682931830100
4.923305760094668 0.872032561373016 19.258709812900101
4.916084040035668 7.519935067509016 4.312485882424101
4.916912093158668 7.475527730113017 11.764512763494100
4.917740146281668 7.431120392717016 19.216539644564101
4.910518426222668 14.079022898853015 4.270315714088101
4.911346479345668 14.034615561457015 11.722342595158100
4.912174532468668 13.990208224061016 19.174369476228101
11.578610564447668 0.955431250322016 4.352593089133101
11.579438617570668 0.911023912926016 11.804619970203101
11.580266670693668 0.866616575530016 19.256646851273100
11.573044950634667 7.514519081666016 4.310422920797101
11.573873003757669 7.470111744270016 11.762449801867101
11.574701056880668 7.425704406874017 19.214476682937100
11.567479336821670 14.073606913010016 4.268252752461100
11.568307389944668 14.029199575614015 11.720279633531099
11.569135443067669 13.984792238218015 19.172306514601100
18.235571475046669 0.950015264479016 4.350530127506101
18.236399528169670 0.905607927083016 11.802557008576102
18.237227581292668 0.861200589687016 19.254583889646099
18.230005861233671 7.509103095823017 4.308359959170100
18.230833914356669 7.464695758427016 11.760386840240100
18.231661967479667 7.420288421031016 19.212413721310099
18.224440247420667 14.068190927167015 4.266189790834100
18.225268300543668 14.023783589771016 11.718216671904100
18.226096353666669 13.979376252375015 19.170243552974100
4.269862941817241 4.932981015096872 2.526262806698480
4.270690994940241 4.888573677700872 9.978289687768481
4.271519048063241 4.844166340304872 17.430316568838482
4.264297328004241 11.492068846440873 2.484092638362480
4.265125381127241 11.447661509044872 9.936119519432481
4.265953434250241 11.403254171648872 17.388146400502482
4.258731714191241 18.051156677784871 2.441922470026480
4.259559767314241 18.006749340388872 9.893949351096481
4.260387820437241 17.962342002992873 17.345976232166482
10.926823852416241 4.927565029253872 2.524199845071480
10.927651905539241 4.883157691857872 9.976226726141480
10.928479958662241 4.838750354461872 17.428253607211481
10.921258238603240 11.486652860597871 2.482029676735480
10.922086291726242 11.442245523201873 9.934056557805480
10.922914344849241 11.397838185805872 17.386083438875481
10.915692624790243 18.045740691941873 2.439859508399480
10.916520677913240 18.001333354545871 9.891886389469480
10.917348731036242 17.956926017149872 17.343913270539481
17.583784763015242 4.922149043410872 2.522136883444480
17.584612816138240 4.877741706014872 9.974163764514481
17.585440869261241 4.833334368618872 17.426190645584480
17.578219149202241 11.481236874754872 2.479966715108480
17.579047202325242 11.436829537358872 9.931993596178479
17.579875255448243 11.392422199962873 17.384020477248480
17.572653535389243 18.040324706098872 2.437796546772480
17.573481588512244 17.995917368702873 9.889823427842479
17.574309641635242 17.951510031306871 17.341850308912480
2.437323558545896 5.928089919435877 6.762319200169677
2.438151611668896 5.883682582039877 14.214346081239677
2.438979664791896 5.839275244643876 21.666372962309676
2.431757944732896 12.487177750779876 6.720149031833677
2.432585997855896 12.442770413383876 14.172175912903677
2.433414050978896 12.398363075987877 21.624202793973677
2.426192330919896 19.046265582123876 6.677978863497677
2.427020384042896 19.001858244727877 14.130005744567677
2.427848437165896 18.957450907331875 21.582032625637677
9.094284469144895 5.922673933592876 6.760256238542677
9.095112522267897 5.878266596196877 14.212283119612678
9.095940575390896 5.833859258800877 21.664310000682676
9.088718855331896 12.481761764936877 6.718086070206677
9.089546908454896 12.437354427540877 14.170112951276678
9.090374961577897 12.392947090144876 21.622139832346676
9.083153241518897 19.040849596280879 6.675915901870677
9.083981294641896 18.996442258884876 14.127942782940677
9.084809347764896 18.952034921488874 21.579969664010676
15.751245379743896 5.917257947749877 6.758193276915677
15.752073432866897 5.872850610353876 14.210220157985678
15.752901485989895 5.828443272957877 21.662247039055678
15.745679765930898 12.476345779093876 6.716023108579677
15.746507819053896 12.431938441697877 14.168049989649678
15.747335872176897 12.387531104301877 21.620076870719679
15.740114152117897 19.035433610437877 6.673852940243677
15.740942205240898 18.991026273041875 14.125879821313678
15.741770258363896 18.946618935645876 21.577906702383679
4.191355586169341 0.492021262239980 3.029976949357127
4.192183639292341 0.447613924843980 10.482003830427127
4.193011692415341 0.403206587447980 17.934030711497126
4.185789972356341 7.051109093583980 2.987806781021127
4.186618025479341 7.006701756187980 10.439833662091127
4.187446078602341 6.962294418791980 17.891860543161126
4.180224358543342 13.610196924927980 2.945636612685127
4.181052411666341 13.565789587531979 10.397663493755127
4.181880464789341 13.521382250135980 17.849690374825126
10.848316496768341 0.486605276396980 3.027913987730127
10.849144549891342 0.442197939000980 10.479940868800128
10.849972603014342 0.397790601604980 17.931967749870125
10.842750882955341 7.045693107740980 2.985743819394127
10.843578936078341 7.001285770344980 10.437770700464128
10.844406989201342 6.956878432948980 17.889797581534125
10.837185269142342 13.604780939084980 2.943573651058127
10.838013322265342 13.560373601688980 10.395600532128126
10.838841375388341 13.515966264292979 17.847627413198126
17.505277407367341 0.481189290553980 3.025851026103127
17.506105460490343 0.436781953157980 10.477877907173127
17.506933513613340 0.392374615761980 17.929904788243128
17.499711793554344 7.040277121897980 2.983680857767127
17.500539846677341 6.995869784501980 10.435707738837127
17.501367899800343 6.951462447105980 17.887734619907128
17.494146179741342 13.599364953241979 2.941510689431126
17.494974232864344 13.554957615845980 10.393537570501127
17.495802285987342 13.510550278449980 17.845564451571128
2.807035200883808 0.839369047463731 4.910703753189856
2.807863254006808 0.794961710067731 12.362730634259856
2.808691307129808 0.750554372671731 19.814757515329855
2.801469587070808 7.398456878807730 4.868533584853856
2.802297640193808 7.354049541411731 12.320560465923856
2.803125693316808 7.309642204015731 19.772587346993856
2.795903973257808 13.957544710151730 4.826363416517856
2.796732026380808 13.913137372755729 12.278390297587856
2.797560079503808 13.868730035359730 19.730417178657856
9.463996111482809 0.833953061620731 4.908640791562856
9.464824164605808 0.789545724224731 12.360667672632857
9.465652217728808 0.745138386828731 19.812694553702855
9.458430497669807 7.393040892964731 4.866470623226856
9.459258550792809 7.348633555568730 12.318497504296857
9.460086603915808 7.304226218172731 19.770524385366855
9.452864883856808 13.952128724308730 4.824300454890856
9.453692936979808 13.907721386912730 12.276327335960856
9.454520990102807 13.863314049516729 19.728354217030855
16.120957022081807 0.828537075777731 4.906577829935856
16.121785075204809 0.784129738381731 12.358604711005857
16.122613128327806 0.739722400985731 19.810631592075858
16.115391408268810 7.387624907121731 4.864407661599856
16.116219461391807 7.343217569725731 12.316434542669857
16.117047514514809 7.298810232329730 19.768461423739858
16.109825794455809 13.946712738465729 4.822237493263856
16.110653847578810 13.902305401069730 12.274264374333857
16.111481900701808 13.857898063673730 19.726291255403858
3.814878772139404 5.604137435096191 1.164399186715417
3.815706825262404 5.559730097700191 8.616426067785417
3.816534878385404 5.515322760304191 16.068452948855416
3.809313158326404 12.163225266440190 1.122229018379417
3.810141211449404 12.118817929044191 8.574255899449417
3.810969264572404 12.074410591648190 16.026282780519416
3.803747544513404 18.722313097784191 1.080058850043417
3.804575597636404 18.677905760388189 8.532085731113417
3.805403650759404 18.633498422992190 15.984112612183418
10.471839682738404 5.598721449253190 1.162336225088417
10.472667735861403 5.554314111857191 8.614363106158418
10.473495788984405 5.509906774461191 16.066389987228415
10.466274068925404 12.157809280597190 1.120166056752417
10.467102122048404 12.113401943201190 8.572192937822418
10.467930175171404 12.068994605805191 16.024219818892416
10.460708455112405 18.716897111941190 1.077995888416417
10.461536508235405 18.672489774545191 8.530022769486417
10.462364561358404 18.628082437149189 15.982049650556418
17.128800593337406 5.593305463410191 1.160273263461417
17.129628646460404 5.548898126014191 8.612300144531417
17.130456699583405 5.504490788618191 16.064327025601418
17.123234979524405 12.152393294754191 1.118103095125417
17.124063032647406 12.107985957358190 8.570129976195417
17.124891085770404 12.063578619962190 16.022156857265418
17.117669365711404 18.711481126098189 1.075932926789417
17.118497418834405 18.667073788702190 8.527959807859418
17.119325471957406 18.622666451306191 15.979986688929419
6.591127491642291 4.266247675811862 4.983727188703718
6.591955544765290 4.221840338415863 12.435754069773719
6.592783597888291 4.177433001019862 19.887780950843720
6.585561877829290 10.825335507155863 4.941557020367719
6.586389930952291 10.780928169759862 12.393583901437719
6.587217984075290 10.736520832363862 19.845610782507720
6.579996264016291 17.384423338499861 4.899386852031719
6.580824317139291 17.340016001103862 12.351413733101719
6.581652370262290 17.295608663707863 19.803440614171720
13.248088402241290 4.260831689968862 4.981664227076719
13.248916455364292 4.216424352572862 12.433691108146718
13.249744508487291 4.172017015176863 19.885717989216719
13.242522788428291 10.819919521312862 4.939494058740719
13.243350841551290 10.775512183916863 12.391520939810718
13.244178894674292 10.731104846520862 19.843547820880719
13.236957174615291 17.379007352656863 4.897323890404718
13.237785227738291 17.334600015260861 12.349350771474718
13.238613280861291 17.290192677864862 19.801377652544719
19.905049312840291 4.255415704125863 4.979601265449719
19.905877365963292 4.211008366729862 12.431628146519719
19.906705419086290 4.166601029333862 19.883655027589718
19.899483699027293 10.814503535469862 4.937431097113718
19.900311752150291 10.770096198073862 12.389457978183717
19.901139805273292 10.725688860677863 19.841484859253718
19.893918085214292 17.373591366813862 4.895260928777718
19.894746138337293 17.329184029417863 12.347287809847717
19.895574191460291 17.284776692021861 19.799314690917718
0.948972995053513 3.313443772164618 3.155316159327225
0.949801048176513 3.269036434768618 10.607343040397225
0.950629101299513 3.224629097372618 18.059369921467226
0.943407381240513 9.872531603508618 3.113145990991225
0.944235434363513 9.828124266112617 10.565172872061225
0.945063487486513 9.783716928716618 18.017199753131226
0.937841767427513 16.431619434852617 3.070975822655225
0.938669820550513 16.387212097456619 10.523002703725226
0.939497873673513 16.342804760060616 17.975029584795227
7.605933905652513 3.308027786321618 3.153253197700225
7.606761958775513 3.263620448925618 10.605280078770225
7.607590011898513 3.219213111529618 18.057306959840226
7.600368291839513 9.867115617665618 3.111083029364225
7.601196344962514 9.822708280269618 10.563109910434225
7.602024398085513 9.778300942873617 18.015136791504226
7.594802678026514 16.426203449009620 3.068912861028225
7.595630731149513 16.381796111613617 10.520939742098225
7.596458784272513 16.337388774217615 17.972966623168226
14.262894816251514 3.302611800478618 3.151190236073225
14.263722869374513 3.258204463082618 10.603217117143226
14.264550922497513 3.213797125686618 18.055243998213225
14.257329202438514 9.861699631822617 3.109020067737225
14.258157255561514 9.817292294426618 10.561046948807224
14.258985308684514 9.772884957030618 18.013073829877225
14.251763588625513 16.420787463166619 3.066849899401225
14.252591641748515 16.376380125770616 10.518876780471224
14.253419694871514 16.331972788374618 17.970903661541225
5.720653473613848 3.235884284264129 6.849739676630585
5.721481526736848 3.191476946868129 14.301766557700585
5.722309579859848 3.147069609472129 21.753793438770586
5.715087859800848 9.794972115608129 6.807569508294585
5.715915912923848 9.750564778212128 14.259596389364585
5.716743966046848 9.706157440816128 21.711623270434586
5.709522245987849 16.354059946952127 6.765399339958585
5.710350299110848 16.309652609556128 14.217426221028585
5.711178352233848 16.265245272160129 21.669453102098586
12.377614384212848 3.230468298421129 6.847676715003585
12.378442437335849 3.186060961025129 14.299703596073584
12.379270490458849 3.141653623629129 21.751730477143585
12.372048770399848 9.789556129765128 6.805506546667585
12.372876823522848 9.745148792369129 14.257533427737584
12.373704876645849 9.700741454973128 21.709560308807585
12.366483156586849 16.348643961109129 6.763336378331585
12.367311209709849 16.304236623713127 14.215363259401585
12.368139262832848 16.259829286317128 21.667390140471586
19.034575294811848 3.225052312578129 6.845613753376585
19.035403347934849 3.180644975182129 14.297640634446585
19.036231401057847 3.136237637786129 21.749667515516585
19.029009680998850 9.784140143922128 6.803443585040585
19.029837734121848 9.739732806526128 14.255470466110584
19.030665787244850 9.695325469130129 21.707497347180585
19.023444067185849 16.343227975266128 6.761273416704585
19.024272120308851 16.298820637870129 14.213300297774584
19.025100173431849 16.254413300474127 21.665327178844585
1.277227997361365 0.745990967287486 5.465016557433615
1.278056050484365 0.701583629891486 12.917043438503615
1.278884103607365 0.657176292495486 20.369070319573616
1.271662383548365 7.305078798631486 5.422846389097615
1.272490436671365 7.260671461235487 12.874873270167615
1.273318489794365 7.216264123839486 20.326900151237616
1.266096769735365 13.864166629975486 5.380676220761615
1.266924822858365 13.819759292579485 12.832703101831616
1.267752875981365 13.775351955183487 20.284729982901617
7.934188907960365 0.740574981444486 5.462953595806615
7.935016961083365 0.696167644048486 12.914980476876615
7.935845014206365 0.651760306652486 20.367007357946616
7.928623294147365 7.299662812788486 5.420783427470615
7.929451347270366 7.255255475392486 12.872810308540615
7.930279400393365 7.210848137996487 20.324837189610616
7.923057680334366 13.858750644132487 5.378613259134615
7.923885733457365 13.814343306736486 12.830640140204615
7.924713786580365 13.769935969340485 20.282667021274616
14.591149818559366 0.735158995601486 5.460890634179616
14.591977871682365 0.690751658205486 12.912917515249616
14.592805924805365 0.646344320809486 20.364944396319615
14.585584204746366 7.294246826945487 5.418720465843615
14.586412257869366 7.249839489549486 12.870747346913614
14.587240310992366 7.205432152153486 20.322774227983615
14.580018590933365 13.853334658289485 5.376550297507615
14.580846644056367 13.808927320893487 12.828577178577614
14.581674697179366 13.764519983497486 20.280604059647615
5.913955155908070 1.162483679865445 6.299692013700315
5.914783209031070 1.118076342469445 13.751718894770315
5.915611262154070 1.073669005073445 21.203745775840314
5.908389542095070 7.721571511209445 6.257521845364315
5.909217595218070 7.677164173813445 13.709548726434315
5.910045648341070 7.632756836417444 21.161575607504314
5.902823928282070 14.280659342553445 6.215351677028315
5.903651981405070 14.236252005157445 13.667378558098315
5.904480034528070 14.191844667761446 21.119405439168315
12.570916066507070 1.157067694022445 6.297629052073315
12.571744119630070 1.112660356626445 13.749655933143316
12.572572172753070 1.068253019230445 21.201682814213314
12.565350452694069 7.716155525366444 6.255458883737315
12.566178505817071 7.671748187970445 13.707485764807316
12.567006558940070 7.627340850574445 21.159512645877314
12.559784838881072 14.275243356710446 6.213288715401315
12.560612892004070 14.230836019314445 13.665315596471315
12.561440945127071 14.186428681918445 21.117342477541314
19.227876977106071 1.151651708179445 6.295566090446315
19.228705030229072 1.107244370783445 13.747592971516315
19.229533083352070 1.062837033387445 21.199619852586316
19.222311363293073 7.710739539523445 6.253395922110315
19.223139416416071 7.666332202127444 13.705422803180316
19.223967469539069 7.621924864731445 21.157449684250317
19.216745749480069 14.269827370867445 6.211225753774315
19.217573802603070 14.225420033471446 13.663252634844316
19.218401855726071 14.181012696075445 21.115279515914317
2.585688987267184 2.018316853128078 6.847942541906363
2.586517040390184 1.973909515732078 14.299969422976364
2.587345093513184 1.929502178336078 21.751996304046365
2.580123373454184 8.577404684472079 6.805772373570363
2.580951426577184 8.532997347076078 14.257799254640364
2.581779479700184 8.488590009680077 21.709826135710365
2.574557759641184 15.136492515816077 6.763602205234363
2.575385812764184 15.092085178420078 14.215629086304364
2.576213865887184 15.047677841024079 21.667655967374365
9.242649897866185 2.012900867285078 6.845879580279363
9.243477950989185 1.968493529889078 14.297906461349363
9.244306004112184 1.924086192493078 21.749933342419361
9.237084284053184 8.571988698629077 6.803709411943363
9.237912337176185 8.527581361233079 14.255736293013364
9.238740390299185 8.483174023837078 21.707763174083361
9.231518670240185 15.131076529973079 6.761539243607363
9.232346723363184 15.086669192577077 14.213566124677364
9.233174776486184 15.042261855181078 21.665593005747361
15.899610808465185 2.007484881442078 6.843816618652363
15.900438861588185 1.963077544046078 14.295843499722363
15.901266914711185 1.918670206650078 21.747870380792364
15.894045194652186 8.566572712786078 6.801646450316363
15.894873247775186 8.522165375390077 14.253673331386363
15.895701300898185 8.477758037994079 21.705700212456364
15.888479580839185 15.125660544130078 6.759476281980363
15.889307633962186 15.081253206734079 14.211503163050363
15.890135687085186 15.036845869338077 21.663530044120364
2.665656581985920 3.536520263407338 7.402243429115953
2.666484635108920 3.492112926011337 14.854270310185953
2.667312688231920 3.447705588615338 22.306297191255954
2.660090968172920 10.095608094751338 7.360073260779953
2.660919021295920 10.051200757355337 14.812100141849953
2.661747074418920 10.006793419959337 22.264127022919954
2.654525354359920 16.654695926095336 7.317903092443953
2.655353407482920 16.610288588699337 14.769929973513953
2.656181460605920 16.565881251303338 22.221956854583954
9.322617492584921 3.531104277564338 7.400180467488953
9.323445545707919 3.486696940168338 14.852207348558952
9.324273598830921 3.442289602772338 22.304234229628953
9.317051878771920 10.090192108908337 7.358010299152953
9.317879931894922 10.045784771512338 14.810037180222952
9.318707985017920 10.001377434116337 22.262064061292953
9.311486264958921 16.649279940252338 7.315840130816953
9.312314318081921 16.604872602856336 14.767867011886953
9.313142371204920 16.560465265460337 22.219893892956954
15.979578403183922 3.525688291721337 7.398117505861953
15.980406456306920 3.481280954325338 14.850144386931953
15.981234509429921 3.436873616929338 22.302171268001953
15.974012789370921 10.084776123065337 7.355947337525953
15.974840842493922 10.040368785669337 14.807974218595952
15.975668895616920 9.995961448273338 22.260001099665953
15.968447175557920 16.643863954409337 7.313777169189953
15.969275228680921 16.599456617013338 14.765804050259952
15.970103281803922 16.555049279617336 22.217830931329953
3.970688547581097 2.860986200816204 3.662305581589252
3.971516600704097 2.816578863420204 11.114332462659252
3.972344653827097 2.772171526024204 18.566359343729253
3.965122933768098 9.420074032160203 3.620135413253252
3.965950986891097 9.375666694764204 11.072162294323252
3.966779040014097 9.331259357368204 18.524189175393253
3.959557319955097 15.979161863504203 3.577965244917252
3.960385373078097 15.934754526108202 11.029992125987253
3.961213426201097 15.890347188712203 18.482019007057254
10.627649458180098 2.855570214973204 3.660242619962252
10.628477511303098 2.811162877577204 11.112269501032252
10.629305564426097 2.766755540181204 18.564296382102253
10.622083844367097 9.414658046317204 3.618072451626252
10.622911897490098 9.370250708921203 11.070099332696252
10.623739950613098 9.325843371525204 18.522126213766253
10.616518230554098 15.973745877661203 3.575902283290252
10.617346283677097 15.929338540265203 11.027929164360252
10.618174336800097 15.884931202869202 18.479956045430253
17.284610368779099 2.850154229130204 3.658179658335252
17.285438421902096 2.805746891734204 11.110206539405253
17.286266475025098 2.761339554338204 18.562233420475252
17.279044754966097 9.409242060474204 3.616009489999252
17.279872808089099 9.364834723078204 11.068036371069251
17.280700861212097 9.320427385682203 18.520063252139252
17.273479141153096 15.968329891818202 3.573839321663252
17.274307194276098 15.923922554422203 11.025866202733251
17.275135247399099 15.879515217026203 18.477893083803252
0.645519632720922 0.390885887903434 1.999756792624849
0.646347685843922 0.346478550507434 9.451783673694850
0.647175738966922 0.302071213111434 16.903810554764849
0.639954018907922 6.949973719247433 1.957586624288849
0.640782072030922 6.905566381851433 9.409613505358850
0.641610125153922 6.861159044455433 16.861640386428849
0.634388405094922 13.509061550591433 1.915416455952849
0.635216458217922 13.464654213195432 9.367443337022850
0.636044511340922 13.420246875799434 16.819470218092849
7.302480543319922 0.385469902060434 1.997693830997849
7.303308596442921 0.341062564664434 9.449720712067849
7.304136649565923 0.296655227268434 16.901747593137848
7.296914929506922 6.944557733404433 1.955523662661849
7.297742982629922 6.900150396008433 9.407550543731849
7.298571035752921 6.855743058612433 16.859577424801849
7.291349315693923 13.503645564748433 1.913353494325849
7.292177368816922 13.459238227352433 9.365380375395850
7.293005421939922 13.414830889956432 16.817407256465849
13.959441453918922 0.380053916217434 1.995630869370849
13.960269507041922 0.335646578821434 9.447657750440850
13.961097560164921 0.291239241425434 16.899684631510851
13.953875840105923 6.939141747561433 1.953460701034849
13.954703893228922 6.894734410165433 9.405487582104849
13.955531946351922 6.850327072769433 16.857514463174851
13.948310226292921 13.498229578905432 1.911290532698849
13.949138279415923 13.453822241509434 9.363317413768849
13.949966332538922 13.409414904113433 16.815344294838852
2.867155763857479 3.971633184996653 3.890377948613477
2.867983816980479 3.927225847600653 11.342404829683478
2.868811870103479 3.882818510204653 18.794431710753479
2.861590150044479 10.530721016340653 3.848207780277477
2.862418203167478 10.486313678944652 11.300234661347478
2.863246256290478 10.441906341548652 18.752261542417479
2.856024536231478 17.089808847684651 3.806037611941477
2.856852589354478 17.045401510288652 11.258064493011478
2.857680642477479 17.000994172892653 18.710091374081479
9.524116674456479 3.966217199153653 3.888314986986477
9.524944727579479 3.921809861757653 11.340341868056477
9.525772780702479 3.877402524361653 18.792368749126478
9.518551060643478 10.525305030497652 3.846144818650477
9.519379113766480 10.480897693101653 11.298171699720477
9.520207166889479 10.436490355705653 18.750198580790478
9.512985446830479 17.084392861841653 3.803974650314477
9.513813499953478 17.039985524445651 11.256001531384477
9.514641553076478 16.995578187049652 18.708028412454478
16.181077585055480 3.960801213310653 3.886252025359477
16.181905638178478 3.916393875914653 11.338278906429478
16.182733691301479 3.871986538518653 18.790305787499477
16.175511971242479 10.519889044654652 3.844081857023477