DMC-ICE13 ice II; Cartesian 4x4x4 supercell
1.0
28.493356720000001 0.000000000000000 -12.164616600000000
-18.420263280000000 21.738567360000001 -12.164616600000000
0.000000000000000 0.000000000000000 30.981435760000000
H O
1536 768
Cartesian
6.417944000000000 10.248042999999999 8.693522000000000
6.417944000000000 10.248042999999999 16.438880940000001
6.417944000000000 10.248042999999999 24.184239880000000
6.417944000000000 10.248042999999999 31.929598820000002
1.812878180000000 15.682684840000000 5.652367849999999
1.812878180000000 15.682684840000000 13.397726790000000
1.812878180000000 15.682684840000000 21.143085729999999
1.812878180000000 15.682684840000000 28.888444669999998
-2.792187640000000 21.117326679999998 2.611213700000000
-2.792187640000000 21.117326679999998 10.356572640000000
-2.792187640000000 21.117326679999998 18.101931579999999
-2.792187640000000 21.117326679999998 25.847290520000001
-7.397253460000000 26.551968519999999 -0.429940450000000
-7.397253460000000 26.551968519999999 7.315418490000000
-7.397253460000000 26.551968519999999 15.060777430000000
-7.397253460000000 26.551968519999999 22.806136370000001
13.541283180000001 10.248042999999999 5.652367849999999
13.541283180000001 10.248042999999999 13.397726790000000
13.541283180000001 10.248042999999999 21.143085729999999
13.541283180000001 10.248042999999999 28.888444669999998
8.936217360000001 15.682684840000000 2.611213700000000
8.936217360000001 15.682684840000000 10.356572640000000
8.936217360000001 15.682684840000000 18.101931579999999
8.936217360000001 15.682684840000000 25.847290520000001
4.331151540000000 21.117326679999998 -0.429940450000000
4.331151540000000 21.117326679999998 7.315418489999999
4.331151540000000 21.117326679999998 15.060777430000000
4.331151540000000 21.117326679999998 22.806136370000001
-0.273914280000000 26.551968519999999 -3.471094600000001
-0.273914280000000 26.551968519999999 4.274264340000000
-0.273914280000000 26.551968519999999 12.019623279999999
-0.273914280000000 26.551968519999999 19.764982220000000
20.664622360000003 10.248042999999999 2.611213700000000
20.664622360000003 10.248042999999999 10.356572640000000
20.664622360000003 10.248042999999999 18.101931579999999
20.664622360000003 10.248042999999999 25.847290520000001
16.059556540000003 15.682684840000000 -0.429940450000000
16.059556540000003 15.682684840000000 7.315418489999999
16.059556540000003 15.682684840000000 15.060777430000000
16.059556540000003 15.682684840000000 22.806136370000001
11.454490720000001 21.117326679999998 -3.471094600000001
11.454490720000001 21.117326679999998 4.274264339999999
11.454490720000001 21.117326679999998 12.019623279999999
11.454490720000001 21.117326679999998 19.764982220000000
6.849424900000001 26.551968519999999 -6.512248749999999
6.849424900000001 26.551968519999999 1.233110190000000
6.849424900000001 26.551968519999999 8.978469130000001
6.849424900000001 26.551968519999999 16.723828070000003
27.787961539999998 10.248042999999999 -0.429940450000000
27.787961539999998 10.248042999999999 7.315418490000000
27.787961539999998 10.248042999999999 15.060777430000000
27.787961539999998 10.248042999999999 22.806136370000001
23.182895719999998 15.682684840000000 -3.471094600000001
23.182895719999998 15.682684840000000 4.274264340000000
23.182895719999998 15.682684840000000 12.019623279999999
23.182895719999998 15.682684840000000 19.764982220000000
18.577829899999998 21.117326679999998 -6.512248749999999
18.577829899999998 21.117326679999998 1.233110190000000
18.577829899999998 21.117326679999998 8.978469130000001
18.577829899999998 21.117326679999998 16.723828070000003
13.972764079999999 26.551968519999999 -9.553402900000000
13.972764079999999 26.551968519999999 -1.808043960000001
13.972764079999999 26.551968519999999 5.937314980000000
13.972764079999999 26.551968519999999 13.682673920000001
6.623366000000000 11.303845000000001 9.806830000000000
6.623366000000000 11.303845000000001 17.552188940000001
6.623366000000000 11.303845000000001 25.297547880000000
6.623366000000000 11.303845000000001 33.042906819999999
2.018300180000000 16.738486840000000 6.765675849999999
2.018300180000000 16.738486840000000 14.511034790000000
2.018300180000000 16.738486840000000 22.256393729999999
2.018300180000000 16.738486840000000 30.001752670000002
-2.586765640000000 22.173128680000001 3.724521699999999
-2.586765640000000 22.173128680000001 11.469880640000000
-2.586765640000000 22.173128680000001 19.215239580000002
-2.586765640000000 22.173128680000001 26.960598519999998
-7.191831460000000 27.607770520000003 0.683367550000000
-7.191831460000000 27.607770520000003 8.428726489999999
-7.191831460000000 27.607770520000003 16.174085429999998
-7.191831460000000 27.607770520000003 23.919444370000001
13.746705179999999 11.303845000000001 6.765675849999999
13.746705179999999 11.303845000000001 14.511034790000000
13.746705179999999 11.303845000000001 22.256393729999999
13.746705179999999 11.303845000000001 30.001752670000002
9.141639359999999 16.738486840000000 3.724521699999999
9.141639359999999 16.738486840000000 11.469880640000000
9.141639359999999 16.738486840000000 19.215239580000002
9.141639359999999 16.738486840000000 26.960598519999998
4.536573540000000 22.173128680000001 0.683367550000000
4.536573540000000 22.173128680000001 8.428726489999999
4.536573540000000 22.173128680000001 16.174085429999998
4.536573540000000 22.173128680000001 23.919444370000001
-0.068492280000000 27.607770520000003 -2.357786600000001
-0.068492280000000 27.607770520000003 5.387572340000000
-0.068492280000000 27.607770520000003 13.132931279999999
-0.068492280000000 27.607770520000003 20.878290220000000
20.870044360000001 11.303845000000001 3.724521699999999
20.870044360000001 11.303845000000001 11.469880640000000
20.870044360000001 11.303845000000001 19.215239580000002
20.870044360000001 11.303845000000001 26.960598519999998
16.264978540000001 16.738486840000000 0.683367550000000
16.264978540000001 16.738486840000000 8.428726489999999
16.264978540000001 16.738486840000000 16.174085429999998
16.264978540000001 16.738486840000000 23.919444370000001
11.659912720000001 22.173128680000001 -2.357786600000001
11.659912720000001 22.173128680000001 5.387572339999999
11.659912720000001 22.173128680000001 13.132931279999999
11.659912720000001 22.173128680000001 20.878290220000000
7.054846900000000 27.607770520000003 -5.398940750000000
7.054846900000000 27.607770520000003 2.346418190000000
7.054846900000000 27.607770520000003 10.091777130000001
7.054846900000000 27.607770520000003 17.837136070000000
27.993383540000000 11.303845000000001 0.683367550000000
27.993383540000000 11.303845000000001 8.428726489999999
27.993383540000000 11.303845000000001 16.174085429999998
27.993383540000000 11.303845000000001 23.919444370000001
23.388317720000000 16.738486840000000 -2.357786600000001
23.388317720000000 16.738486840000000 5.387572340000000
23.388317720000000 16.738486840000000 13.132931279999999
23.388317720000000 16.738486840000000 20.878290220000000
18.783251900000000 22.173128680000001 -5.398940750000000
18.783251900000000 22.173128680000001 2.346418190000000
18.783251900000000 22.173128680000001 10.091777130000001
18.783251900000000 22.173128680000001 17.837136070000000
14.178186080000000 27.607770520000003 -8.440094900000000
14.178186080000000 27.607770520000003 -0.694735960000001
14.178186080000000 27.607770520000003 7.050622980000000
14.178186080000000 27.607770520000003 14.795981920000001
12.768371000000000 7.403543000000000 12.051133000000000
12.768371000000000 7.403543000000000 19.796491939999999
12.768371000000000 7.403543000000000 27.541850879999998
12.768371000000000 7.403543000000000 35.287209820000001
8.163305180000000 12.838184840000000 9.009978850000000
8.163305180000000 12.838184840000000 16.755337789999999
8.163305180000000 12.838184840000000 24.500696730000001
8.163305180000000 12.838184840000000 32.246055670000004
3.558239360000000 18.272826680000001 5.968824700000000
3.558239360000000 18.272826680000001 13.714183640000000
3.558239360000000 18.272826680000001 21.459542580000001
3.558239360000000 18.272826680000001 29.204901520000000
-1.046826460000000 23.707468519999999 2.927670550000000
-1.046826460000000 23.707468519999999 10.673029490000001
-1.046826460000000 23.707468519999999 18.418388430000000
-1.046826460000000 23.707468519999999 26.163747370000003
19.891710180000000 7.403543000000000 9.009978850000000
19.891710180000000 7.403543000000000 16.755337789999999
19.891710180000000 7.403543000000000 24.500696730000001
19.891710180000000 7.403543000000000 32.246055670000004
15.286644360000000 12.838184840000000 5.968824700000000
15.286644360000000 12.838184840000000 13.714183640000000
15.286644360000000 12.838184840000000 21.459542580000001
15.286644360000000 12.838184840000000 29.204901520000000
10.681578540000000 18.272826680000001 2.927670550000000
10.681578540000000 18.272826680000001 10.673029489999999
10.681578540000000 18.272826680000001 18.418388430000000
10.681578540000000 18.272826680000001 26.163747370000003
6.076512720000000 23.707468519999999 -0.113483600000000
6.076512720000000 23.707468519999999 7.631875340000001
6.076512720000000 23.707468519999999 15.377234280000000
6.076512720000000 23.707468519999999 23.122593219999999
27.015049359999999 7.403543000000000 5.968824700000000
27.015049359999999 7.403543000000000 13.714183640000000
27.015049359999999 7.403543000000000 21.459542580000001
27.015049359999999 7.403543000000000 29.204901520000000
22.409983539999999 12.838184840000000 2.927670550000000
22.409983539999999 12.838184840000000 10.673029489999999
22.409983539999999 12.838184840000000 18.418388430000000
22.409983539999999 12.838184840000000 26.163747370000003
17.804917719999999 18.272826680000001 -0.113483600000000
17.804917719999999 18.272826680000001 7.631875340000000
17.804917719999999 18.272826680000001 15.377234280000000
17.804917719999999 18.272826680000001 23.122593219999999
13.199851900000001 23.707468519999999 -3.154637749999999
13.199851900000001 23.707468519999999 4.590721190000000
13.199851900000001 23.707468519999999 12.336080129999999
13.199851900000001 23.707468519999999 20.081439070000002
34.138388540000001 7.403543000000000 2.927670550000000
34.138388540000001 7.403543000000000 10.673029490000001
34.138388540000001 7.403543000000000 18.418388430000000
34.138388540000001 7.403543000000000 26.163747370000003
29.533322720000001 12.838184840000000 -0.113483600000000
29.533322720000001 12.838184840000000 7.631875340000001
29.533322720000001 12.838184840000000 15.377234280000000
29.533322720000001 12.838184840000000 23.122593219999999
24.928256900000001 18.272826680000001 -3.154637749999999
24.928256900000001 18.272826680000001 4.590721190000000
24.928256900000001 18.272826680000001 12.336080129999999
24.928256900000001 18.272826680000001 20.081439070000002
20.323191080000001 23.707468519999999 -6.195791900000000
20.323191080000001 23.707468519999999 1.549567039999999
20.323191080000001 23.707468519999999 9.294925980000000
20.323191080000001 23.707468519999999 17.040284920000001
13.091172000000000 7.319880000000000 13.594135000000000
13.091172000000000 7.319880000000000 21.339493940000001
13.091172000000000 7.319880000000000 29.084852880000000
13.091172000000000 7.319880000000000 36.830211820000002
8.486106180000000 12.754521840000001 10.552980849999999
8.486106180000000 12.754521840000001 18.298339790000000
8.486106180000000 12.754521840000001 26.043698729999999
8.486106180000000 12.754521840000001 33.789057669999998
3.881040360000000 18.189163680000000 7.511826699999999
3.881040360000000 18.189163680000000 15.257185639999999
3.881040360000000 18.189163680000000 23.002544579999999
3.881040360000000 18.189163680000000 30.747903520000001
-0.724025460000000 23.623805520000001 4.470672550000000
-0.724025460000000 23.623805520000001 12.216031489999999
-0.724025460000000 23.623805520000001 19.961390430000002
-0.724025460000000 23.623805520000001 27.706749370000001
20.214511180000002 7.319880000000000 10.552980849999999
20.214511180000002 7.319880000000000 18.298339790000000
20.214511180000002 7.319880000000000 26.043698729999999
20.214511180000002 7.319880000000000 33.789057669999998
15.609445360000000 12.754521840000001 7.511826699999999
15.609445360000000 12.754521840000001 15.257185639999999
15.609445360000000 12.754521840000001 23.002544579999999
15.609445360000000 12.754521840000001 30.747903520000001
11.004379540000000 18.189163680000000 4.470672550000000
11.004379540000000 18.189163680000000 12.216031489999999
11.004379540000000 18.189163680000000 19.961390430000002
11.004379540000000 18.189163680000000 27.706749370000001
6.399313720000000 23.623805520000001 1.429518399999999
6.399313720000000 23.623805520000001 9.174877340000000
6.399313720000000 23.623805520000001 16.920236280000001
6.399313720000000 23.623805520000001 24.665595220000000
27.337850360000001 7.319880000000000 7.511826699999999
27.337850360000001 7.319880000000000 15.257185639999999
27.337850360000001 7.319880000000000 23.002544579999999
27.337850360000001 7.319880000000000 30.747903520000001
22.732784540000001 12.754521840000001 4.470672550000000
22.732784540000001 12.754521840000001 12.216031489999999
22.732784540000001 12.754521840000001 19.961390430000002
22.732784540000001 12.754521840000001 27.706749370000001
18.127718720000001 18.189163680000000 1.429518399999999
18.127718720000001 18.189163680000000 9.174877339999998
18.127718720000001 18.189163680000000 16.920236279999997
18.127718720000001 18.189163680000000 24.665595220000000
13.522652900000001 23.623805520000001 -1.611635750000000
13.522652900000001 23.623805520000001 6.133723190000000
13.522652900000001 23.623805520000001 13.879082130000000
13.522652900000001 23.623805520000001 21.624441070000003
34.461189539999999 7.319880000000000 4.470672550000000
34.461189539999999 7.319880000000000 12.216031489999999
34.461189539999999 7.319880000000000 19.961390430000002
34.461189539999999 7.319880000000000 27.706749370000001
29.856123719999999 12.754521840000001 1.429518399999999
29.856123719999999 12.754521840000001 9.174877340000000
29.856123719999999 12.754521840000001 16.920236280000001
29.856123719999999 12.754521840000001 24.665595220000000
25.251057899999999 18.189163680000000 -1.611635750000000
25.251057899999999 18.189163680000000 6.133723190000000
25.251057899999999 18.189163680000000 13.879082130000000
25.251057899999999 18.189163680000000 21.624441070000003
20.645992079999999 23.623805520000001 -4.652789900000000
20.645992079999999 23.623805520000001 3.092569039999999
20.645992079999999 23.623805520000001 10.837927980000000
20.645992079999999 23.623805520000001 18.583286919999999
10.646870000000000 6.138815000000000 15.718164000000000
10.646870000000000 6.138815000000000 23.463522940000001
10.646870000000000 6.138815000000000 31.208881880000000
10.646870000000000 6.138815000000000 38.954240820000003
6.041804180000000 11.573456840000000 12.677009849999999
6.041804180000000 11.573456840000000 20.422368790000000
6.041804180000000 11.573456840000000 28.167727729999999
6.041804180000000 11.573456840000000 35.913086669999998
1.436738360000000 17.008098680000000 9.635855700000000
1.436738360000000 17.008098680000000 17.381214640000000
1.436738360000000 17.008098680000000 25.126573579999999
1.436738360000000 17.008098680000000 32.871932520000001
-3.168327460000000 22.442740520000001 6.594701550000000
-3.168327460000000 22.442740520000001 14.340060489999999
-3.168327460000000 22.442740520000001 22.085419430000002
-3.168327460000000 22.442740520000001 29.830778370000001
17.770209180000002 6.138815000000000 12.677009849999999
17.770209180000002 6.138815000000000 20.422368790000000
17.770209180000002 6.138815000000000 28.167727729999999
17.770209180000002 6.138815000000000 35.913086669999998
13.165143360000000 11.573456840000000 9.635855700000000
13.165143360000000 11.573456840000000 17.381214640000000
13.165143360000000 11.573456840000000 25.126573579999999
13.165143360000000 11.573456840000000 32.871932520000001
8.560077540000000 17.008098680000000 6.594701550000000
8.560077540000000 17.008098680000000 14.340060489999999
8.560077540000000 17.008098680000000 22.085419430000002
8.560077540000000 17.008098680000000 29.830778370000001
3.955011720000000 22.442740520000001 3.553547399999999
3.955011720000000 22.442740520000001 11.298906340000000
3.955011720000000 22.442740520000001 19.044265280000001
3.955011720000000 22.442740520000001 26.789624220000000
24.893548360000000 6.138815000000000 9.635855700000000
24.893548360000000 6.138815000000000 17.381214640000000
24.893548360000000 6.138815000000000 25.126573579999999
24.893548360000000 6.138815000000000 32.871932520000001
20.288482540000000 11.573456840000000 6.594701550000000
20.288482540000000 11.573456840000000 14.340060489999999
20.288482540000000 11.573456840000000 22.085419430000002
20.288482540000000 11.573456840000000 29.830778370000001
15.683416720000000 17.008098680000000 3.553547399999999
15.683416720000000 17.008098680000000 11.298906339999998
15.683416720000000 17.008098680000000 19.044265279999998
15.683416720000000 17.008098680000000 26.789624220000000
11.078350900000000 22.442740520000001 0.512393250000001
11.078350900000000 22.442740520000001 8.257752190000000
11.078350900000000 22.442740520000001 16.003111130000001
11.078350900000000 22.442740520000001 23.748470070000003
32.016887539999999 6.138815000000000 6.594701550000000
32.016887539999999 6.138815000000000 14.340060489999999
32.016887539999999 6.138815000000000 22.085419430000002
32.016887539999999 6.138815000000000 29.830778370000001
27.411821719999999 11.573456840000000 3.553547399999999
27.411821719999999 11.573456840000000 11.298906340000000
27.411821719999999 11.573456840000000 19.044265280000001
27.411821719999999 11.573456840000000 26.789624220000000
22.806755899999999 17.008098680000000 0.512393250000001
22.806755899999999 17.008098680000000 8.257752190000000
22.806755899999999 17.008098680000000 16.003111130000001
22.806755899999999 17.008098680000000 23.748470070000003
18.201690079999999 22.442740520000001 -2.528760900000000
18.201690079999999 22.442740520000001 5.216598039999999
18.201690079999999 22.442740520000001 12.961956980000000
18.201690079999999 22.442740520000001 20.707315919999999
11.934880000000000 6.978175000000000 15.899630999999999
11.934880000000000 6.978175000000000 23.644989939999999
11.934880000000000 6.978175000000000 31.390348879999998
11.934880000000000 6.978175000000000 39.135707820000000
7.329814180000000 12.412816840000001 12.858476849999999
7.329814180000000 12.412816840000001 20.603835789999998
7.329814180000000 12.412816840000001 28.349194730000001
7.329814180000000 12.412816840000001 36.094553669999996
2.724748360000000 17.847458680000003 9.817322699999998
2.724748360000000 17.847458680000003 17.562681640000001
2.724748360000000 17.847458680000003 25.308040580000000
2.724748360000000 17.847458680000003 33.053399519999999
-1.880317460000001 23.282100520000000 6.776168550000000
-1.880317460000001 23.282100520000000 14.521527490000000
-1.880317460000001 23.282100520000000 22.266886430000000
-1.880317460000001 23.282100520000000 30.012245370000002
19.058219180000002 6.978175000000000 12.858476849999999
19.058219180000002 6.978175000000000 20.603835789999998
19.058219180000002 6.978175000000000 28.349194730000001
19.058219180000002 6.978175000000000 36.094553669999996
14.453153360000000 12.412816840000001 9.817322699999998
14.453153360000000 12.412816840000001 17.562681640000001
14.453153360000000 12.412816840000001 25.308040580000000
14.453153360000000 12.412816840000001 33.053399519999999
9.848087540000000 17.847458680000003 6.776168550000000
9.848087540000000 17.847458680000003 14.521527489999999
9.848087540000000 17.847458680000003 22.266886430000000
9.848087540000000 17.847458680000003 30.012245370000002
5.243021720000000 23.282100520000000 3.735014399999999
5.243021720000000 23.282100520000000 11.480373340000000
5.243021720000000 23.282100520000000 19.225732279999999
5.243021720000000 23.282100520000000 26.971091219999998
26.181558360000000 6.978175000000000 9.817322699999998
26.181558360000000 6.978175000000000 17.562681640000001
26.181558360000000 6.978175000000000 25.308040580000000
26.181558360000000 6.978175000000000 33.053399519999999
21.576492540000000 12.412816840000001 6.776168550000000
21.576492540000000 12.412816840000001 14.521527489999999
21.576492540000000 12.412816840000001 22.266886430000000
21.576492540000000 12.412816840000001 30.012245370000002
16.971426720000000 17.847458680000003 3.735014399999999
16.971426720000000 17.847458680000003 11.480373340000000
16.971426720000000 17.847458680000003 19.225732279999999
16.971426720000000 17.847458680000003 26.971091219999998
12.366360900000000 23.282100520000000 0.693860250000000
12.366360900000000 23.282100520000000 8.439219189999999
12.366360900000000 23.282100520000000 16.184578129999998
12.366360900000000 23.282100520000000 23.929937070000001
33.304897539999999 6.978175000000000 6.776168550000000
33.304897539999999 6.978175000000000 14.521527490000000
33.304897539999999 6.978175000000000 22.266886430000000
33.304897539999999 6.978175000000000 30.012245370000002
28.699831719999999 12.412816840000001 3.735014399999999
28.699831719999999 12.412816840000001 11.480373340000000
28.699831719999999 12.412816840000001 19.225732279999999
28.699831719999999 12.412816840000001 26.971091219999998
24.094765899999999 17.847458680000003 0.693860250000000
24.094765899999999 17.847458680000003 8.439219189999999
24.094765899999999 17.847458680000003 16.184578129999998
24.094765899999999 17.847458680000003 23.929937070000001
19.489700079999999 23.282100520000000 -2.347293900000000
19.489700079999999 23.282100520000000 5.398065039999999
19.489700079999999 23.282100520000000 13.143423980000000
19.489700079999999 23.282100520000000 20.888782920000001
11.270740999999999 9.144830000000001 8.628221999999999
11.270740999999999 9.144830000000001 16.373580940000000
11.270740999999999 9.144830000000001 24.118939879999999
11.270740999999999 9.144830000000001 31.864298820000002
6.665675179999999 14.579471840000000 5.587067849999999
6.665675179999999 14.579471840000000 13.332426790000000
6.665675179999999 14.579471840000000 21.077785729999999
6.665675179999999 14.579471840000000 28.823144669999998
2.060609359999999 20.014113680000001 2.545913699999999
2.060609359999999 20.014113680000001 10.291272639999999
2.060609359999999 20.014113680000001 18.036631579999998
2.060609359999999 20.014113680000001 25.781990520000001
-2.544456460000001 25.448755519999999 -0.495240450000001
-2.544456460000001 25.448755519999999 7.250118489999999
-2.544456460000001 25.448755519999999 14.995477429999999
-2.544456460000001 25.448755519999999 22.740836370000000
18.394080180000000 9.144830000000001 5.587067849999999
18.394080180000000 9.144830000000001 13.332426790000000
18.394080180000000 9.144830000000001 21.077785729999999
18.394080180000000 9.144830000000001 28.823144669999998
13.789014359999999 14.579471840000000 2.545913699999999
13.789014359999999 14.579471840000000 10.291272639999999
13.789014359999999 14.579471840000000 18.036631579999998
13.789014359999999 14.579471840000000 25.781990520000001
9.183948539999999 20.014113680000001 -0.495240450000001
9.183948539999999 20.014113680000001 7.250118489999998
9.183948539999999 20.014113680000001 14.995477429999999
9.183948539999999 20.014113680000001 22.740836370000000
4.578882719999999 25.448755519999999 -3.536394600000001
4.578882719999999 25.448755519999999 4.208964340000000
4.578882719999999 25.448755519999999 11.954323279999999
4.578882719999999 25.448755519999999 19.699682220000000
25.517419359999998 9.144830000000001 2.545913699999999
25.517419359999998 9.144830000000001 10.291272639999999
25.517419359999998 9.144830000000001 18.036631579999998
25.517419359999998 9.144830000000001 25.781990520000001
20.912353539999998 14.579471840000000 -0.495240450000001
20.912353539999998 14.579471840000000 7.250118489999998
20.912353539999998 14.579471840000000 14.995477429999999
20.912353539999998 14.579471840000000 22.740836370000000
16.307287719999998 20.014113680000001 -3.536394600000001
16.307287719999998 20.014113680000001 4.208964339999999
16.307287719999998 20.014113680000001 11.954323279999999
16.307287719999998 20.014113680000001 19.699682220000000
11.702221900000000 25.448755519999999 -6.577548750000000
11.702221900000000 25.448755519999999 1.167810189999999
11.702221900000000 25.448755519999999 8.913169130000000
11.702221900000000 25.448755519999999 16.658528070000003
32.640758540000000 9.144830000000001 -0.495240450000001
32.640758540000000 9.144830000000001 7.250118489999999
32.640758540000000 9.144830000000001 14.995477429999999
32.640758540000000 9.144830000000001 22.740836370000000
28.035692720000000 14.579471840000000 -3.536394600000001
28.035692720000000 14.579471840000000 4.208964340000000
28.035692720000000 14.579471840000000 11.954323279999999
28.035692720000000 14.579471840000000 19.699682220000000
23.430626900000000 20.014113680000001 -6.577548750000000
23.430626900000000 20.014113680000001 1.167810189999999
23.430626900000000 20.014113680000001 8.913169130000000
23.430626900000000 20.014113680000001 16.658528070000003
18.825561080000000 25.448755519999999 -9.618702900000001
18.825561080000000 25.448755519999999 -1.873343960000001
18.825561080000000 25.448755519999999 5.872014979999999
18.825561080000000 25.448755519999999 13.617373920000000
12.582812000000001 9.337194000000000 7.771747000000000
12.582812000000001 9.337194000000000 15.517105940000000
12.582812000000001 9.337194000000000 23.262464880000000
12.582812000000001 9.337194000000000 31.007823820000002
7.977746180000000 14.771835840000001 4.730592850000001
7.977746180000000 14.771835840000001 12.475951790000000
7.977746180000000 14.771835840000001 20.221310729999999
7.977746180000000 14.771835840000001 27.966669670000002
3.372680360000000 20.206477679999999 1.689438700000000
3.372680360000000 20.206477679999999 9.434797639999999
3.372680360000000 20.206477679999999 17.180156580000002
3.372680360000000 20.206477679999999 24.925515520000001
-1.232385460000000 25.641119520000000 -1.351715449999999
-1.232385460000000 25.641119520000000 6.393643490000001
-1.232385460000000 25.641119520000000 14.139002430000001
-1.232385460000000 25.641119520000000 21.884361370000001
19.706151179999999 9.337194000000000 4.730592850000001
19.706151179999999 9.337194000000000 12.475951790000000
19.706151179999999 9.337194000000000 20.221310729999999
19.706151179999999 9.337194000000000 27.966669670000002
15.101085360000001 14.771835840000001 1.689438700000000
15.101085360000001 14.771835840000001 9.434797639999999
15.101085360000001 14.771835840000001 17.180156580000002
15.101085360000001 14.771835840000001 24.925515520000001
10.496019540000001 20.206477679999999 -1.351715449999999
10.496019540000001 20.206477679999999 6.393643490000001
10.496019540000001 20.206477679999999 14.139002430000001
10.496019540000001 20.206477679999999 21.884361370000001
5.890953720000001 25.641119520000000 -4.392869600000000
5.890953720000001 25.641119520000000 3.352489340000001
5.890953720000001 25.641119520000000 11.097848280000001
5.890953720000001 25.641119520000000 18.843207220000000
26.829490360000001 9.337194000000000 1.689438700000000
26.829490360000001 9.337194000000000 9.434797639999999
26.829490360000001 9.337194000000000 17.180156580000002
26.829490360000001 9.337194000000000 24.925515520000001
22.224424540000001 14.771835840000001 -1.351715449999999
22.224424540000001 14.771835840000001 6.393643490000001
22.224424540000001 14.771835840000001 14.139002430000001
22.224424540000001 14.771835840000001 21.884361370000001
17.619358720000001 20.206477679999999 -4.392869600000000
17.619358720000001 20.206477679999999 3.352489340000000
17.619358720000001 20.206477679999999 11.097848280000001
17.619358720000001 20.206477679999999 18.843207220000000
13.014292900000001 25.641119520000000 -7.434023749999999
13.014292900000001 25.641119520000000 0.311335190000000
13.014292900000001 25.641119520000000 8.056694130000000
13.014292900000001 25.641119520000000 15.802053070000003
33.952829539999996 9.337194000000000 -1.351715449999999
33.952829539999996 9.337194000000000 6.393643490000001
33.952829539999996 9.337194000000000 14.139002430000001
33.952829539999996 9.337194000000000 21.884361370000001
29.347763720000000 14.771835840000001 -4.392869600000000
29.347763720000000 14.771835840000001 3.352489340000001
29.347763720000000 14.771835840000001 11.097848280000001
29.347763720000000 14.771835840000001 18.843207220000000
24.742697900000000 20.206477679999999 -7.434023749999999
24.742697900000000 20.206477679999999 0.311335190000000
24.742697900000000 20.206477679999999 8.056694130000000
24.742697900000000 20.206477679999999 15.802053070000003
20.137632079999999 25.641119520000000 -10.475177899999998
20.137632079999999 25.641119520000000 -2.729818960000000
20.137632079999999 25.641119520000000 5.015539980000001
20.137632079999999 25.641119520000000 12.760898920000002
14.802765000000001 6.708601000000000 7.562427000000000
14.802765000000001 6.708601000000000 15.307785939999999
14.802765000000001 6.708601000000000 23.053144879999998
14.802765000000001 6.708601000000000 30.798503820000001
10.197699180000001 12.143242839999999 4.521272849999999
10.197699180000001 12.143242839999999 12.266631790000000
10.197699180000001 12.143242839999999 20.011990730000001
10.197699180000001 12.143242839999999 27.757349670000000
5.592633360000001 17.577884680000000 1.480118699999999
5.592633360000001 17.577884680000000 9.225477639999999
5.592633360000001 17.577884680000000 16.970836580000000
5.592633360000001 17.577884680000000 24.716195519999999
0.987567540000001 23.012526520000002 -1.561035450000000
0.987567540000001 23.012526520000002 6.184323490000000
0.987567540000001 23.012526520000002 13.929682430000000
0.987567540000001 23.012526520000002 21.675041370000002