DMC-ICE13 ice Ih; Cartesian 3x3x3 supercell
1.0
23.034278999999998 0.000000000000000 0.000000000000000
11.517138000000001 19.948269000000000 0.000000000000000
0.000000000000000 0.000000000000000 21.703701000000002
H O
648 324
Cartesian
1.285051545679000 2.225681567714000 1.445459252033000
1.285051545679000 2.225681567714000 8.680026252033000
1.285051545679000 2.225681567714000 15.914593252033001
5.124097545679000 8.875104567714001 1.445459252033000
5.124097545679000 8.875104567714001 8.680026252033000
5.124097545679000 8.875104567714001 15.914593252033001
8.963143545678999 15.524527567713999 1.445459252033000
8.963143545678999 15.524527567713999 8.680026252033000
8.963143545678999 15.524527567713999 15.914593252033001
8.963144545679000 2.225681567714000 1.445459252033000
8.963144545679000 2.225681567714000 8.680026252033000
8.963144545679000 2.225681567714000 15.914593252033001
12.802190545679000 8.875104567714001 1.445459252033000
12.802190545679000 8.875104567714001 8.680026252033000
12.802190545679000 8.875104567714001 15.914593252033001
16.641236545679000 15.524527567713999 1.445459252033000
16.641236545679000 15.524527567713999 8.680026252033000
16.641236545679000 15.524527567713999 15.914593252033001
16.641237545678997 2.225681567714000 1.445459252033000
16.641237545678997 2.225681567714000 8.680026252033000
16.641237545678997 2.225681567714000 15.914593252033001
20.480283545679001 8.875104567714001 1.445459252033000
20.480283545679001 8.875104567714001 8.680026252033000
20.480283545679001 8.875104567714001 15.914593252033001
24.319329545679000 15.524527567713999 1.445459252033000
24.319329545679000 15.524527567713999 8.680026252033000
24.319329545679000 15.524527567713999 15.914593252033001
5.107905114896000 0.000066494230000 1.445321795260000
5.107905114896000 0.000066494230000 8.679888795260000
5.107905114896000 0.000066494230000 15.914455795260000
8.946951114896001 6.649489494230000 1.445321795260000
8.946951114896001 6.649489494230000 8.679888795260000
8.946951114896001 6.649489494230000 15.914455795260000
12.785997114896000 13.298912494229999 1.445321795260000
12.785997114896000 13.298912494229999 8.679888795260000
12.785997114896000 13.298912494229999 15.914455795260000
12.785998114896000 0.000066494230000 1.445321795260000
12.785998114896000 0.000066494230000 8.679888795260000
12.785998114896000 0.000066494230000 15.914455795260000
16.625044114895999 6.649489494230000 1.445321795260000
16.625044114895999 6.649489494230000 8.679888795260000
16.625044114895999 6.649489494230000 15.914455795260000
20.464090114895999 13.298912494229999 1.445321795260000
20.464090114895999 13.298912494229999 8.679888795260000
20.464090114895999 13.298912494229999 15.914455795260000
20.464091114896000 0.000066494230000 1.445321795260000
20.464091114896000 0.000066494230000 8.679888795260000
20.464091114896000 0.000066494230000 15.914455795260000
24.303137114896000 6.649489494230000 1.445321795260000
24.303137114896000 6.649489494230000 8.679888795260000
24.303137114896000 6.649489494230000 15.914455795260000
28.142183114896000 13.298912494229999 1.445321795260000
28.142183114896000 13.298912494229999 8.679888795260000
28.142183114896000 13.298912494229999 15.914455795260000
5.123932801408000 4.423601794403000 1.445401375497000
5.123932801408000 4.423601794403000 8.679968375497001
5.123932801408000 4.423601794403000 15.914535375497000
8.962978801408001 11.073024794403000 1.445401375497000
8.962978801408001 11.073024794403000 8.679968375497001
8.962978801408001 11.073024794403000 15.914535375497000
12.802024801408001 17.722447794402999 1.445401375497000
12.802024801408001 17.722447794402999 8.679968375497001
12.802024801408001 17.722447794402999 15.914535375497000
12.802025801408000 4.423601794403000 1.445401375497000
12.802025801408000 4.423601794403000 8.679968375497001
12.802025801408000 4.423601794403000 15.914535375497000
16.641071801408000 11.073024794403000 1.445401375497000
16.641071801408000 11.073024794403000 8.679968375497001
16.641071801408000 11.073024794403000 15.914535375497000
20.480117801407999 17.722447794402999 1.445401375497000
20.480117801407999 17.722447794402999 8.679968375497001
20.480117801407999 17.722447794402999 15.914535375497000
20.480118801408000 4.423601794403000 1.445401375497000
20.480118801408000 4.423601794403000 8.679968375497001
20.480118801408000 4.423601794403000 15.914535375497000
24.319164801408000 11.073024794403000 1.445401375497000
24.319164801408000 11.073024794403000 8.679968375497001
24.319164801408000 11.073024794403000 15.914535375497000
28.158210801408000 17.722447794402999 1.445401375497000
28.158210801408000 17.722447794402999 8.679968375497001
28.158210801408000 17.722447794402999 15.914535375497000
6.409272275576000 6.649263413848000 5.062648702662000
6.409272275576000 6.649263413848000 12.297215702662001
6.409272275576000 6.649263413848000 19.531782702661999
10.248318275576001 13.298686413847999 5.062648702662000
10.248318275576001 13.298686413847999 12.297215702662001
10.248318275576001 13.298686413847999 19.531782702661999
14.087364275576000 19.948109413847998 5.062648702662000
14.087364275576000 19.948109413847998 12.297215702662001
14.087364275576000 19.948109413847998 19.531782702661999
14.087365275575999 6.649263413848000 5.062648702662000
14.087365275575999 6.649263413848000 12.297215702662001
14.087365275575999 6.649263413848000 19.531782702661999
17.926411275576001 13.298686413847999 5.062648702662000
17.926411275576001 13.298686413847999 12.297215702662001
17.926411275576001 13.298686413847999 19.531782702661999
21.765457275576001 19.948109413847998 5.062648702662000
21.765457275576001 19.948109413847998 12.297215702662001
21.765457275576001 19.948109413847998 19.531782702661999
21.765458275575998 6.649263413848000 5.062648702662000
21.765458275575998 6.649263413848000 12.297215702662001
21.765458275575998 6.649263413848000 19.531782702661999
25.604504275576002 13.298686413847999 5.062648702662000
25.604504275576002 13.298686413847999 12.297215702662001
25.604504275576002 13.298686413847999 19.531782702661999
29.443550275576001 19.948109413847998 5.062648702662000
29.443550275576001 19.948109413847998 12.297215702662001
29.443550275576001 19.948109413847998 19.531782702661999
10.231822560133999 4.423455507097000 5.062749986600000
10.231822560133999 4.423455507097000 12.297316986600000
10.231822560133999 4.423455507097000 19.531883986600000
14.070868560133999 11.072878507096998 5.062749986600000
14.070868560133999 11.072878507096998 12.297316986600000
14.070868560133999 11.072878507096998 19.531883986600000
17.909914560133998 17.722301507097001 5.062749986600000
17.909914560133998 17.722301507097001 12.297316986600000
17.909914560133998 17.722301507097001 19.531883986600000
17.909915560133999 4.423455507097000 5.062749986600000
17.909915560133999 4.423455507097000 12.297316986600000
17.909915560133999 4.423455507097000 19.531883986600000
21.748961560133999 11.072878507096998 5.062749986600000
21.748961560133999 11.072878507096998 12.297316986600000
21.748961560133999 11.072878507096998 19.531883986600000
25.588007560133999 17.722301507097001 5.062749986600000
25.588007560133999 17.722301507097001 12.297316986600000
25.588007560133999 17.722301507097001 19.531883986600000
25.588008560134000 4.423455507097000 5.062749986600000
25.588008560134000 4.423455507097000 12.297316986600000
25.588008560134000 4.423455507097000 19.531883986600000
29.427054560134000 11.072878507096998 5.062749986600000
29.427054560134000 11.072878507096998 12.297316986600000
29.427054560134000 11.072878507096998 19.531883986600000
33.266100560133999 17.722301507097001 5.062749986600000
33.266100560133999 17.722301507097001 12.297316986600000
33.266100560133999 17.722301507097001 19.531883986600000
6.392914431050000 2.225927596365000 5.062742752033000
6.392914431050000 2.225927596365000 12.297309752033001
6.392914431050000 2.225927596365000 19.531876752033000
10.231960431050000 8.875350596364999 5.062742752033000
10.231960431050000 8.875350596364999 12.297309752033001
10.231960431050000 8.875350596364999 19.531876752033000
14.071006431050002 15.524773596365000 5.062742752033000
14.071006431050002 15.524773596365000 12.297309752033001
14.071006431050002 15.524773596365000 19.531876752033000
14.071007431049999 2.225927596365000 5.062742752033000
14.071007431049999 2.225927596365000 12.297309752033001
14.071007431049999 2.225927596365000 19.531876752033000
17.910053431050002 8.875350596364999 5.062742752033000
17.910053431050002 8.875350596364999 12.297309752033001
17.910053431050002 8.875350596364999 19.531876752033000
21.749099431049999 15.524773596365000 5.062742752033000
21.749099431049999 15.524773596365000 12.297309752033001
21.749099431049999 15.524773596365000 19.531876752033000
21.749100431050000 2.225927596365000 5.062742752033000
21.749100431050000 2.225927596365000 12.297309752033001
21.749100431050000 2.225927596365000 19.531876752033000
25.588146431049999 8.875350596364999 5.062742752033000
25.588146431049999 8.875350596364999 12.297309752033001
25.588146431049999 8.875350596364999 19.531876752033000
29.427192431050003 15.524773596365000 5.062742752033000
29.427192431050003 15.524773596365000 12.297309752033001
29.427192431050003 15.524773596365000 19.531876752033000
4.180445227149000 0.000039896538000 0.141681760128000
4.180445227149000 0.000039896538000 7.376248760128000
4.180445227149000 0.000039896538000 14.610815760128000
8.019491227149000 6.649462896538000 0.141681760128000
8.019491227149000 6.649462896538000 7.376248760128000
8.019491227149000 6.649462896538000 14.610815760128000
11.858537227149000 13.298885896538000 0.141681760128000
11.858537227149000 13.298885896538000 7.376248760128000
11.858537227149000 13.298885896538000 14.610815760128000
11.858538227148999 0.000039896538000 0.141681760128000
11.858538227148999 0.000039896538000 7.376248760128000
11.858538227148999 0.000039896538000 14.610815760128000
15.697584227149001 6.649462896538000 0.141681760128000
15.697584227149001 6.649462896538000 7.376248760128000
15.697584227149001 6.649462896538000 14.610815760128000
19.536630227149001 13.298885896538000 0.141681760128000
19.536630227149001 13.298885896538000 7.376248760128000
19.536630227149001 13.298885896538000 14.610815760128000
19.536631227148998 0.000039896538000 0.141681760128000
19.536631227148998 0.000039896538000 7.376248760128000
19.536631227148998 0.000039896538000 14.610815760128000
23.375677227149001 6.649462896538000 0.141681760128000
23.375677227149001 6.649462896538000 7.376248760128000
23.375677227149001 6.649462896538000 14.610815760128000
27.214723227149001 13.298885896538000 0.141681760128000
27.214723227149001 13.298885896538000 7.376248760128000
27.214723227149001 13.298885896538000 14.610815760128000
1.748677774897000 3.028945164960000 0.141833686035000
1.748677774897000 3.028945164960000 7.376400686035000
1.748677774897000 3.028945164960000 14.610967686035000
5.587723774897000 9.678368164960000 0.141833686035000
5.587723774897000 9.678368164960000 7.376400686035000
5.587723774897000 9.678368164960000 14.610967686035000
9.426769774897000 16.327791164960001 0.141833686035000
9.426769774897000 16.327791164960001 7.376400686035000
9.426769774897000 16.327791164960001 14.610967686035000
9.426770774896999 3.028945164960000 0.141833686035000
9.426770774896999 3.028945164960000 7.376400686035000
9.426770774896999 3.028945164960000 14.610967686035000
13.265816774897001 9.678368164960000 0.141833686035000
13.265816774897001 9.678368164960000 7.376400686035000
13.265816774897001 9.678368164960000 14.610967686035000
17.104862774897001 16.327791164960001 0.141833686035000
17.104862774897001 16.327791164960001 7.376400686035000
17.104862774897001 16.327791164960001 14.610967686035000
17.104863774896998 3.028945164960000 0.141833686035000
17.104863774896998 3.028945164960000 7.376400686035000
17.104863774896998 3.028945164960000 14.610967686035000
20.943909774897001 9.678368164960000 0.141833686035000
20.943909774897001 9.678368164960000 7.376400686035000
20.943909774897001 9.678368164960000 14.610967686035000
24.782955774897001 16.327791164960001 0.141833686035000
24.782955774897001 16.327791164960001 7.376400686035000
24.782955774897001 16.327791164960001 14.610967686035000
5.587693518045000 3.620477835040000 0.141754105798000
5.587693518045000 3.620477835040000 7.376321105798000
5.587693518045000 3.620477835040000 14.610888105798001
9.426739518045000 10.269900835040000 0.141754105798000
9.426739518045000 10.269900835040000 7.376321105798000
9.426739518045000 10.269900835040000 14.610888105798001
13.265785518045000 16.919323835040000 0.141754105798000
13.265785518045000 16.919323835040000 7.376321105798000
13.265785518045000 16.919323835040000 14.610888105798001
13.265786518044999 3.620477835040000 0.141754105798000
13.265786518044999 3.620477835040000 7.376321105798000
13.265786518044999 3.620477835040000 14.610888105798001
17.104832518045001 10.269900835040000 0.141754105798000
17.104832518045001 10.269900835040000 7.376321105798000
17.104832518045001 10.269900835040000 14.610888105798001
20.943878518045000 16.919323835040000 0.141754105798000
20.943878518045000 16.919323835040000 7.376321105798000
20.943878518045000 16.919323835040000 14.610888105798001
20.943879518044998 3.620477835040000 0.141754105798000
20.943879518044998 3.620477835040000 7.376321105798000
20.943879518044998 3.620477835040000 14.610888105798001
24.782925518045001 10.269900835040000 0.141754105798000
24.782925518045001 10.269900835040000 7.376321105798000
24.782925518045001 10.269900835040000 14.610888105798001
28.621971518045001 16.919323835040000 0.141754105798000
28.621971518045001 16.919323835040000 7.376321105798000
28.621971518045001 16.919323835040000 14.610888105798001
7.336670738579000 6.649290011540000 3.758965260128000
7.336670738579000 6.649290011540000 10.993532260127999
7.336670738579000 6.649290011540000 18.228099260128001
11.175716738579000 13.298713011539999 3.758965260128000
11.175716738579000 13.298713011539999 10.993532260127999
11.175716738579000 13.298713011539999 18.228099260128001
15.014762738579002 19.948136011540001 3.758965260128000
15.014762738579002 19.948136011540001 10.993532260127999
15.014762738579002 19.948136011540001 18.228099260128001
15.014763738578999 6.649290011540000 3.758965260128000
15.014763738578999 6.649290011540000 10.993532260127999
15.014763738578999 6.649290011540000 18.228099260128001
18.853809738579002 13.298713011539999 3.758965260128000
18.853809738579002 13.298713011539999 10.993532260127999
18.853809738579002 13.298713011539999 18.228099260128001
22.692855738578999 19.948136011540001 3.758965260128000
22.692855738578999 19.948136011540001 10.993532260127999
22.692855738578999 19.948136011540001 18.228099260128001
22.692856738579000 6.649290011540000 3.758965260128000
22.692856738579000 6.649290011540000 10.993532260127999
22.692856738579000 6.649290011540000 18.228099260128001
26.531902738578999 13.298713011539999 3.758965260128000
26.531902738578999 13.298713011539999 10.993532260127999
26.531902738578999 13.298713011539999 18.228099260128001
30.370948738579003 19.948136011540001 3.758965260128000
30.370948738579003 19.948136011540001 10.993532260127999
30.370948738579003 19.948136011540001 18.228099260128001
9.768230882330000 3.620251754658000 3.759081013200000
9.768230882330000 3.620251754658000 10.993648013200000
9.768230882330000 3.620251754658000 18.228215013200000
13.607276882330000 10.269674754658000 3.759081013200000
13.607276882330000 10.269674754658000 10.993648013200000
13.607276882330000 10.269674754658000 18.228215013200000
17.446322882330001 16.919097754658001 3.759081013200000
17.446322882330001 16.919097754658001 10.993648013200000
17.446322882330001 16.919097754658001 18.228215013200000
17.446323882329999 3.620251754658000 3.759081013200000
17.446323882329999 3.620251754658000 10.993648013200000
17.446323882329999 3.620251754658000 18.228215013200000
21.285369882330002 10.269674754658000 3.759081013200000
21.285369882330002 10.269674754658000 10.993648013200000
21.285369882330002 10.269674754658000 18.228215013200000
25.124415882329998 16.919097754658001 3.759081013200000
25.124415882329998 16.919097754658001 10.993648013200000
25.124415882329998 16.919097754658001 18.228215013200000
25.124416882329999 3.620251754658000 3.759081013200000
25.124416882329999 3.620251754658000 10.993648013200000
25.124416882329999 3.620251754658000 18.228215013200000
28.963462882329999 10.269674754658000 3.759081013200000
28.963462882329999 10.269674754658000 10.993648013200000
28.963462882329999 10.269674754658000 18.228215013200000
32.802508882330002 16.919097754658001 3.759081013200000
32.802508882330002 16.919097754658001 10.993648013200000
32.802508882330002 16.919097754658001 18.228215013200000
5.929199782976999 3.028971762652000 3.759023136664001
5.929199782976999 3.028971762652000 10.993590136664000
5.929199782976999 3.028971762652000 18.228157136664002
9.768245782976999 9.678394762651999 3.759023136664001
9.768245782976999 9.678394762651999 10.993590136664000
9.768245782976999 9.678394762651999 18.228157136664002
13.607291782977001 16.327817762652000 3.759023136664001
13.607291782977001 16.327817762652000 10.993590136664000
13.607291782977001 16.327817762652000 18.228157136664002
13.607292782976998 3.028971762652000 3.759023136664001
13.607292782976998 3.028971762652000 10.993590136664000
13.607292782976998 3.028971762652000 18.228157136664002
17.446338782977001 9.678394762651999 3.759023136664001
17.446338782977001 9.678394762651999 10.993590136664000
17.446338782977001 9.678394762651999 18.228157136664002
21.285384782976998 16.327817762652000 3.759023136664001
21.285384782976998 16.327817762652000 10.993590136664000
21.285384782976998 16.327817762652000 18.228157136664002
21.285385782976999 3.028971762652000 3.759023136664001
21.285385782976999 3.028971762652000 10.993590136664000
21.285385782976999 3.028971762652000 18.228157136664002
25.124431782976998 9.678394762651999 3.759023136664001
25.124431782976998 9.678394762651999 10.993590136664000
25.124431782976998 9.678394762651999 18.228157136664002
28.963477782977002 16.327817762652000 3.759023136664001
28.963477782977002 16.327817762652000 10.993590136664000
28.963477782977002 16.327817762652000 18.228157136664002
5.927337633445999 5.848041189462999 7.122329927562000
5.927337633445999 5.848041189462999 14.356896927562001
5.927337633445999 5.848041189462999 21.591463927562000
9.766383633445999 12.497464189462999 7.122329927562000
9.766383633445999 12.497464189462999 14.356896927562001
9.766383633445999 12.497464189462999 21.591463927562000
13.605429633446001 19.146887189462998 7.122329927562000
13.605429633446001 19.146887189462998 14.356896927562001
13.605429633446001 19.146887189462998 21.591463927562000
13.605430633445998 5.848041189462999 7.122329927562000
13.605430633445998 5.848041189462999 14.356896927562001
13.605430633445998 5.848041189462999 21.591463927562000
17.444476633446001 12.497464189462999 7.122329927562000
17.444476633446001 12.497464189462999 14.356896927562001
17.444476633446001 12.497464189462999 21.591463927562000
21.283522633445997 19.146887189462998 7.122329927562000
21.283522633445997 19.146887189462998 14.356896927562001
21.283522633445997 19.146887189462998 21.591463927562000
21.283523633445999 5.848041189462999 7.122329927562000
21.283523633445999 5.848041189462999 14.356896927562001
21.283523633445999 5.848041189462999 21.591463927562000
25.122569633445998 12.497464189462999 7.122329927562000
25.122569633445998 12.497464189462999 14.356896927562001
25.122569633445998 12.497464189462999 21.591463927562000
28.961615633446002 19.146887189462998 7.122329927562000
28.961615633446002 19.146887189462998 14.356896927562001
28.961615633446002 19.146887189462998 21.591463927562000
5.927368225305000 7.450725017460999 7.122293754727001
5.927368225305000 7.450725017460999 14.356860754727002
5.927368225305000 7.450725017460999 21.591427754727000
9.766414225305001 14.100148017460999 7.122293754727001
9.766414225305001 14.100148017460999 14.356860754727002
9.766414225305001 14.100148017460999 21.591427754727000
13.605460225305000 20.749571017460998 7.122293754727001
13.605460225305000 20.749571017460998 14.356860754727002
13.605460225305000 20.749571017460998 21.591427754727000
13.605461225305000 7.450725017460999 7.122293754727001
13.605461225305000 7.450725017460999 14.356860754727002
13.605461225305000 7.450725017460999 21.591427754727000
17.444507225304999 14.100148017460999 7.122293754727001
17.444507225304999 14.100148017460999 14.356860754727002
17.444507225304999 14.100148017460999 21.591427754727000
21.283553225304999 20.749571017460998 7.122293754727001
21.283553225304999 20.749571017460998 14.356860754727002
21.283553225304999 20.749571017460998 21.591427754727000
21.283554225305000 7.450725017460999 7.122293754727001
21.283554225305000 7.450725017460999 14.356860754727002
21.283554225305000 7.450725017460999 21.591427754727000
25.122600225305000 14.100148017460999 7.122293754727001
25.122600225305000 14.100148017460999 14.356860754727002
25.122600225305000 14.100148017460999 21.591427754727000
28.961646225305000 20.749571017460998 7.122293754727001
28.961646225305000 20.749571017460998 14.356860754727002
28.961646225305000 20.749571017460998 21.591427754727000
9.778776621156000 5.241507421094999 7.122351631263000
9.778776621156000 5.241507421094999 14.356918631262999
9.778776621156000 5.241507421094999 21.591485631263001
13.617822621156000 11.890930421095000 7.122351631263000
13.617822621156000 11.890930421095000 14.356918631262999
13.617822621156000 11.890930421095000 21.591485631263001
17.456868621156001 18.540353421094999 7.122351631263000
17.456868621156001 18.540353421094999 14.356918631262999
17.456868621156001 18.540353421094999 21.591485631263001
17.456869621155999 5.241507421094999 7.122351631263000
17.456869621155999 5.241507421094999 14.356918631262999
17.456869621155999 5.241507421094999 21.591485631263001
21.295915621155999 11.890930421095000 7.122351631263000
21.295915621155999 11.890930421095000 14.356918631262999
21.295915621155999 11.890930421095000 21.591485631263001
25.134961621156002 18.540353421094999 7.122351631263000
25.134961621156002 18.540353421094999 14.356918631262999
25.134961621156002 18.540353421094999 21.591485631263001
25.134962621155999 5.241507421094999 7.122351631263000
25.134962621155999 5.241507421094999 14.356918631262999
25.134962621155999 5.241507421094999 21.591485631263001
28.974008621156003 11.890930421095000 7.122351631263000
28.974008621156003 11.890930421095000 14.356918631262999
28.974008621156003 11.890930421095000 21.591485631263001
32.813054621155999 18.540353421094999 7.122351631263000
32.813054621155999 18.540353421094999 14.356918631262999
32.813054621155999 18.540353421094999 21.591485631263001
7.327783679793999 2.209304038865000 7.122416742366000
7.327783679793999 2.209304038865000 14.356983742366001
7.327783679793999 2.209304038865000 21.591550742366000
11.166829679793999 8.858727038865000 7.122416742366000
11.166829679793999 8.858727038865000 14.356983742366001
11.166829679793999 8.858727038865000 21.591550742366000
15.005875679793999 15.508150038864999 7.122416742366000
15.005875679793999 15.508150038864999 14.356983742366001
15.005875679793999 15.508150038864999 21.591550742366000
15.005876679794000 2.209304038865000 7.122416742366000
15.005876679794000 2.209304038865000 14.356983742366001
15.005876679794000 2.209304038865000 21.591550742366000
18.844922679793999 8.858727038865000 7.122416742366000
18.844922679793999 8.858727038865000 14.356983742366001
18.844922679793999 8.858727038865000 21.591550742366000
22.683968679793999 15.508150038864999 7.122416742366000
22.683968679793999 15.508150038864999 14.356983742366001
22.683968679793999 15.508150038864999 21.591550742366000
22.683969679793996 2.209304038865000 7.122416742366000
22.683969679793996 2.209304038865000 14.356983742366001
22.683969679793996 2.209304038865000 21.591550742366000
26.523015679794000 8.858727038865000 7.122416742366000
26.523015679794000 8.858727038865000 14.356983742366001
26.523015679794000 8.858727038865000 21.591550742366000
30.362061679794000 15.508150038864999 7.122416742366000
30.362061679794000 15.508150038864999 14.356983742366001
30.362061679794000 15.508150038864999 21.591550742366000
5.939811029391000 1.408002021404000 7.122329927562000
5.939811029391000 1.408002021404000 14.356896927562001
5.939811029391000 1.408002021404000 21.591463927562000
9.778857029391000 8.057425021404001 7.122329927562000
9.778857029391000 8.057425021404001 14.356896927562001
9.778857029391000 8.057425021404001 21.591463927562000
13.617903029391000 14.706848021403999 7.122329927562000
13.617903029391000 14.706848021403999 14.356896927562001
13.617903029391000 14.706848021403999 21.591463927562000
13.617904029390999 1.408002021404000 7.122329927562000
13.617904029390999 1.408002021404000 14.356896927562001
13.617904029390999 1.408002021404000 21.591463927562000
17.456950029390999 8.057425021404001 7.122329927562000
17.456950029390999 8.057425021404001 14.356896927562001
17.456950029390999 8.057425021404001 21.591463927562000
21.295996029390999 14.706848021403999 7.122329927562000
21.295996029390999 14.706848021403999 14.356896927562001
21.295996029390999 14.706848021403999 21.591463927562000
21.295997029391000 1.408002021404000 7.122329927562000
21.295997029391000 1.408002021404000 14.356896927562001
21.295997029391000 1.408002021404000 21.591463927562000
25.135043029390999 8.057425021404001 7.122329927562000
25.135043029390999 8.057425021404001 14.356896927562001
25.135043029390999 8.057425021404001 21.591463927562000
28.974089029390999 14.706848021403999 7.122329927562000
28.974089029390999 14.706848021403999 14.356896927562001
28.974089029390999 14.706848021403999 21.591463927562000
1.738147392256000 1.407702797369000 3.505126007799000
1.738147392256000 1.407702797369000 10.739693007799000
1.738147392256000 1.407702797369000 17.974260007799000
5.577193392256000 8.057125797369000 3.505126007799000
5.577193392256000 8.057125797369000 10.739693007799000
5.577193392256000 8.057125797369000 17.974260007799000
9.416239392256001 14.706548797368999 3.505126007799000
9.416239392256001 14.706548797368999 10.739693007799000
9.416239392256001 14.706548797368999 17.974260007799000
9.416240392256000 1.407702797369000 3.505126007799000
9.416240392256000 1.407702797369000 10.739693007799000
9.416240392256000 1.407702797369000 17.974260007799000
13.255286392256000 8.057125797369000 3.505126007799000
13.255286392256000 8.057125797369000 10.739693007799000
13.255286392256000 8.057125797369000 17.974260007799000
17.094332392256000 14.706548797368999 3.505126007799000
17.094332392256000 14.706548797368999 10.739693007799000
17.094332392256000 14.706548797368999 17.974260007799000
17.094333392256001 1.407702797369000 3.505126007799000
17.094333392256001 1.407702797369000 10.739693007799000
17.094333392256001 1.407702797369000 17.974260007799000
20.933379392256001 8.057125797369000 3.505126007799000
20.933379392256001 8.057125797369000 10.739693007799000
20.933379392256001 8.057125797369000 17.974260007799000
24.772425392256000 14.706548797368999 3.505126007799000
24.772425392256000 14.706548797368999 10.739693007799000
24.772425392256000 14.706548797368999 17.974260007799000
9.428812815141999 7.450718368037999 3.505060896696000
9.428812815141999 7.450718368037999 10.739627896696000
9.428812815141999 7.450718368037999 17.974194896696002
13.267858815141999 14.100141368037999 3.505060896696000
13.267858815141999 14.100141368037999 10.739627896696000
13.267858815141999 14.100141368037999 17.974194896696002
17.106904815141998 20.749564368037998 3.505060896696000
17.106904815141998 20.749564368037998 10.739627896696000
17.106904815141998 20.749564368037998 17.974194896696002
17.106905815141999 7.450718368037999 3.505060896696000
17.106905815141999 7.450718368037999 10.739627896696000
17.106905815141999 7.450718368037999 17.974194896696002
20.945951815141999 14.100141368037999 3.505060896696000
20.945951815141999 14.100141368037999 10.739627896696000
20.945951815141999 14.100141368037999 17.974194896696002
24.784997815141999 20.749564368037998 3.505060896696000
24.784997815141999 20.749564368037998 10.739627896696000
24.784997815141999 20.749564368037998 17.974194896696002
24.784998815141996 7.450718368037999 3.505060896696000
24.784998815141996 7.450718368037999 10.739627896696000
24.784998815141996 7.450718368037999 17.974194896696002
28.624044815142000 14.100141368037999 3.505060896696000
28.624044815142000 14.100141368037999 10.739627896696000
28.624044815142000 14.100141368037999 17.974194896696002
32.463090815141996 20.749564368037998 3.505060896696000
32.463090815141996 20.749564368037998 10.739627896696000
32.463090815141996 20.749564368037998 17.974194896696002
9.428778384237999 5.848014591770999 3.505003020160000
9.428778384237999 5.848014591770999 10.739570020160000
9.428778384237999 5.848014591770999 17.974137020160001
13.267824384237999 12.497437591771000 3.505003020160000
13.267824384237999 12.497437591771000 10.739570020160000
13.267824384237999 12.497437591771000 17.974137020160001
17.106870384238000 19.146860591770999 3.505003020160000
17.106870384238000 19.146860591770999 10.739570020160000
17.106870384238000 19.146860591770999 17.974137020160001
17.106871384237998 5.848014591770999 3.505003020160000
17.106871384237998 5.848014591770999 10.739570020160000
17.106871384237998 5.848014591770999 17.974137020160001
20.945917384238001 12.497437591771000 3.505003020160000
20.945917384238001 12.497437591771000 10.739570020160000
20.945917384238001 12.497437591771000 17.974137020160001
24.784963384237997 19.146860591770999 3.505003020160000
24.784963384237997 19.146860591770999 10.739570020160000
24.784963384237997 19.146860591770999 17.974137020160001
24.784964384237998 5.848014591770999 3.505003020160000