DMC-ICE13 ice IV; Cartesian 3x3x3 supercell
1.0
23.345340480906000 0.374090862273000 0.477098779470000
8.298030985014000 21.824014223193000 0.477098806245000
8.471888014110000 5.943102221580000 21.051582296861998
H O
864 432
Cartesian
7.300011330030438 7.721652189439383 6.405487212472605
10.123974001400438 9.702686263299384 13.422681311426604
12.947936672770439 11.683720337159382 20.439875410380605
10.066021658368438 14.996323597170383 6.564520147887605
12.889984329738438 16.977357671030383 13.581714246841605
15.713947001108439 18.958391744890381 20.598908345795603
12.832031986706438 22.270995004901383 6.723553083302605
15.655994658076438 24.252029078761382 13.740747182256605
18.479957329446435 26.233063152621384 20.757941281210606
15.081791490332439 7.846349143530383 6.564520138962605
17.905754161702440 9.827383217390384 13.581714237916604
20.729716833072438 11.808417291250382 20.598908336870604
17.847801818670440 15.121020551261383 6.723553074377604
20.671764490040438 17.102054625121383 13.740747173331604
23.495727161410436 19.083088698981381 20.757941272285603
20.613812147008439 22.395691958992384 6.882586009792605
23.437774818378436 24.376726032852382 13.899780108746604
26.261737489748434 26.357760106712380 20.916974207700605
22.863571650634437 7.971046097621383 6.723553065452605
25.687534322004439 9.952080171481382 13.740747164406605
28.511496993374436 11.933114245341383 20.757941263360603
25.629581978972439 15.245717505352383 6.882586000867605
28.453544650342437 17.226751579212383 13.899780099821605
31.277507321712434 19.207785653072381 20.916974198775605
28.395592307310437 22.520388913083384 7.041618936282605
31.219554978680435 24.501422986943382 14.058813035236604
34.043517650050440 26.482457060803380 21.076007134190604
8.353145553389826 8.603171245885385 5.551761480916457
11.177108224759825 10.584205319745385 12.568955579870456
14.001070896129825 12.565239393605385 19.586149678824455
11.119155881727826 15.877842653616383 5.710794416331457
13.943118553097825 17.858876727476385 12.727988515285457
16.767081224467827 19.839910801336384 19.745182614239457
13.885166210065826 23.152514061347382 5.869827351746457
16.709128881435824 25.133548135207384 12.887021450700455
19.533091552805825 27.114582209067386 19.904215549654456
16.134925713691825 8.727868199976385 5.710794407406457
18.958888385061826 10.708902273836385 12.727988506360457
21.782851056431824 12.689936347696385 19.745182605314454
18.900936042029826 16.002539607707384 5.869827342821456
21.724898713399824 17.983573681567385 12.887021441775456
24.548861384769825 19.964607755427384 19.904215540729457
21.666946370367825 23.277211015438382 6.028860278236457
24.490909041737826 25.258245089298384 13.046054377190456
27.314871713107824 27.239279163158383 20.063248476144455
23.916705873993827 8.852565154067385 5.869827333896457
26.740668545363825 10.833599227927385 12.887021432850457
29.564631216733826 12.814633301787385 19.904215531804457
26.682716202331825 16.127236561798384 6.028860269311457
29.506678873701826 18.108270635658386 13.046054368265455
32.330641545071828 20.089304709518384 20.063248467219456
29.448726530669827 23.401907969529383 6.187893204726457
32.272689202039828 25.382942043389384 13.205087303680457
35.096651873409826 27.363976117249383 20.222281402634454
3.513558887075504 2.156045255155059 4.810467846266175
6.337521558445504 4.137079329015059 11.827661945220175
9.161484229815503 6.118113402875059 18.844856044174175
6.279569215413504 9.430716662886059 4.969500781681176
9.103531886783504 11.411750736746059 11.986694880635175
11.927494558153505 13.392784810606058 19.003888979589174
9.045579543751504 16.705388070617058 5.128533717096175
11.869542215121504 18.686422144477060 12.145727816050176
14.693504886491503 20.667456218337062 19.162921915004176
11.295339047377503 2.280742209246059 4.969500772756176
14.119301718747504 4.261776283106059 11.986694871710174
16.943264390117502 6.242810356966059 19.003888970664175
14.061349375715505 9.555413616977059 5.128533708171175
16.885312047085502 11.536447690837058 12.145727807125175
19.709274718455504 13.517481764697058 19.162921906079173
16.827359704053503 16.830085024708058 5.287566643586175
19.651322375423504 18.811119098568060 12.304760742540175
22.475285046793502 20.792153172428058 19.321954841494176
19.077119207679502 2.405439163337059 5.128533699246176
21.901081879049503 4.386473237197059 12.145727798200175
24.725044550419504 6.367507311057059 19.162921897154174
21.843129536017504 9.680110571068059 5.287566634661175
24.667092207387505 11.661144644928058 12.304760733615176
27.491054878757502 13.642178718788058 19.321954832569176
24.609139864355505 16.954781978799058 5.446599570076176
27.433102535725503 18.935816052659060 12.463793669030174
30.257065207095504 20.916850126519059 19.480987767984175
7.859214734121380 6.607863845664465 4.793335269306230
10.683177405491380 8.588897919524465 11.810529368260230
13.507140076861379 10.569931993384465 18.827723467214227
10.625225062459380 13.882535253395464 4.952368204721230
13.449187733829380 15.863569327255465 11.969562303675229
16.273150405199381 17.844603401115464 18.986756402629229
13.391235390797380 21.157206661126466 5.111401140136230
16.215198062167381 23.138240734986464 12.128595239090229
19.039160733537379 25.119274808846466 19.145789338044231
15.640994894423379 6.732560799755465 4.952368195796230
18.464957565793380 8.713594873615465 11.969562294750229
21.288920237163381 10.694628947475465 18.986756393704226
18.407005222761381 14.007232207486464 5.111401131211229
21.230967894131382 15.988266281346464 12.128595230165228
24.054930565501380 17.969300355206464 19.145789329119228
21.173015551099379 21.281903615217466 5.270434066626230
23.996978222469380 23.262937689077464 12.287628165580230
26.820940893839378 25.243971762937463 19.304822264534231
23.422775054725378 6.857257753846465 5.111401122286230
26.246737726095379 8.838291827706465 12.128595221240229
29.070700397465380 10.819325901566465 19.145789320194229
26.188785383063379 14.131929161577464 5.270434057701229
29.012748054433381 16.112963235437462 12.287628156655229
31.836710725803378 18.093997309297464 19.304822255609231
28.954795711401381 21.406600569308466 5.429466993116230
31.778758382771379 23.387634643168465 12.446661092070229
34.602721054141384 25.368668717028463 19.463855191024230
9.925772574028775 5.318394224553871 7.065683987359413
12.749735245398774 7.299428298413871 14.082878086313412
15.573697916768776 9.280462372273870 21.100072185267411
12.691782902366775 12.593065632284871 7.224716922774413
15.515745573736774 14.574099706144871 14.241911021728413
18.339708245106777 16.555133780004869 21.259105120682413
15.457793230704775 19.867737040015871 7.383749858189413
18.281755902074774 21.848771113875870 14.400943957143411
21.105718573444776 23.829805187735872 21.418138056097412
17.707552734330775 5.443091178644871 7.224716913849413
20.531515405700773 7.424125252504871 14.241911012803413
23.355478077070774 9.405159326364871 21.259105111757410
20.473563062668774 12.717762586375871 7.383749849264412
23.297525734038775 14.698796660235871 14.400943948218412
26.121488405408776 16.679830734095869 21.418138047172413
23.239573391006772 19.992433994106872 7.542782784679413
26.063536062376777 21.973468067966870 14.559976883633412
28.887498733746774 23.954502141826868 21.577170982587411
25.489332894632774 5.567788132735871 7.383749840339413
28.313295566002772 7.548822206595871 14.400943939293413
31.137258237372777 9.529856280455871 21.418138038247413
28.255343222970772 12.842459540466871 7.542782775754413
31.079305894340777 14.823493614326871 14.559976874708411
33.903268565710775 16.804527688186869 21.577170973662412
31.021353551308778 20.117130948197872 7.701815711169413
33.845316222678775 22.098165022057870 14.719009810123413
36.669278894048773 24.079199095917868 21.736203909077410
6.020766056492114 1.542026521937973 0.899069565148933
8.844728727862114 3.523060595797973 7.916263664102932
11.668691399232113 5.504094669657973 14.933457763056932
8.786776384830114 8.816697929668972 1.058102500563933
11.610739056200114 10.797732003528974 8.075296599517934
14.434701727570115 12.778766077388973 15.092490698471932
11.552786713168114 16.091369337399971 1.217135435978933
14.376749384538114 18.072403411259973 8.234329534932932
17.200712055908113 20.053437485119975 15.251523633886933
13.802546216794113 1.666723476028973 1.058102491638933
16.626508888164114 3.647757549888973 8.075296590592933
19.450471559534115 5.628791623748973 15.092490689546931
16.568556545132115 8.941394883759973 1.217135427053933
19.392519216502116 10.922428957619973 8.234329526007933
22.216481887872114 12.903463031479973 15.251523624961932
19.334566873470113 16.216066291490971 1.376168362468933
22.158529544840114 18.197100365350973 8.393362461422933
24.982492216210112 20.178134439210972 15.410556560376932
21.584326377096112 1.791420430119973 1.217135418128933
24.408289048466113 3.772454503979973 8.234329517082934
27.232251719836114 5.753488577839973 15.251523616036932
24.350336705434113 9.066091837850973 1.376168353543933
27.174299376804115 11.047125911710973 8.393362452497932
29.998262048174112 13.028159985570973 15.410556551451933
27.116347033772115 16.340763245581972 1.535201288958933
29.940309705142113 18.321797319441973 8.552395387912933
32.764272376512110 20.302831393301972 15.569589486866931
10.554106388131837 3.619983599596564 5.379545488720354
13.378069059501836 5.601017673456564 12.396739587674354
16.202031730871838 7.582051747316564 19.413933686628354
13.320116716469837 10.894655007327565 5.538578424135355
16.144079387839838 12.875689081187565 12.555772523089354
18.968042059209836 14.856723155047563 19.572966622043353
16.086127044807839 18.169326415058563 5.697611359550354
18.910089716177836 20.150360488918565 12.714805458504355
21.734052387547834 22.131394562778567 19.731999557458355
18.335886548433837 3.744680553687564 5.538578415210354
21.159849219803839 5.725714627547564 12.555772514164353
23.983811891173836 7.706748701407564 19.572966613118354
21.101896876771839 11.019351961418565 5.697611350625354
23.925859548141837 13.000386035278563 12.714805449579353
26.749822219511834 14.981420109138563 19.731999548533352
23.867907205109837 18.294023369149564 5.856644286040354
26.691869876479835 20.275057443009565 12.873838384994354
29.515832547849833 22.256091516869560 19.891032483948354
26.117666708735836 3.869377507778564 5.697611341700354
28.941629380105837 5.850411581638564 12.714805440654354
31.765592051475835 7.831445655498564 19.731999539608353
28.883677037073838 11.144048915509565 5.856644277115354
31.707639708443836 13.125082989369563 12.873838376069354
34.531602379813833 15.106117063229563 19.891032475023355
31.649687365411836 18.418720323240564 6.015677212530354
34.473650036781834 20.399754397100565 13.032871311484353
37.297612708151838 22.380788470960560 20.050065410438354
8.956978343641236 4.938575578431340 5.879875516233852
11.780941015011235 6.919609652291340 12.897069615187853
14.604903686381235 8.900643726151340 19.914263714141853
11.722988671979236 12.213246986162339 6.038908451648853
14.546951343349235 14.194281060022341 13.056102550602851
17.370914014719236 16.175315133882339 20.073296649556852
14.488999000317236 19.487918393893338 6.197941387063852
17.312961671687233 21.468952467753340 13.215135486017852
20.136924343057235 23.449986541613342 20.232329584971851
16.738758503943235 5.063272532522340 6.038908442723852
19.562721175313236 7.044306606382341 13.056102541677852
22.386683846683233 9.025340680242341 20.073296640631852
19.504768832281236 12.337943940253339 6.197941378138852
22.328731503651234 14.318978014113339 13.215135477092851
25.152694175021235 16.300012087973339 20.232329576046851
22.270779160619234 19.612615347984338 6.356974313553852
25.094741831989236 21.593649421844340 13.374168412507853
27.918704503359233 23.574683495704338 20.391362511461850
24.520538664245237 5.187969486613341 6.197941369213853
27.344501335615234 7.169003560473341 13.215135468167851
30.168464006985236 9.150037634333341 20.232329567121852
27.286548992583235 12.462640894344339 6.356974304628852
30.110511663953236 14.443674968204339 13.374168403582852
32.934474335323230 16.424709042064340 20.391362502536850
30.052559320921237 19.737312302075338 6.516007240043852
32.876521992291231 21.718346375935340 13.533201338997852
35.700484663661236 23.699380449795338 20.550395437951849
8.092133981577435 4.126228027047390 1.870948445839804
10.916096652947434 6.107262100907390 8.888142544793803
13.740059324317436 8.088296174767390 15.905336643747804
10.858144309915435 11.400899434778390 2.029981381254804
13.682106981285434 13.381933508638390 9.047175480208804
16.506069652655434 15.362967582498388 16.064369579162804
13.624154638253435 18.675570842509391 2.189014316669804
16.448117309623434 20.656604916369389 9.206208415623804
19.272079980993432 22.637638990229391 16.223402514577803
15.873914141879435 4.250924981138390 2.029981372329804
18.697876813249437 6.231959054998391 9.047175471283804
21.521839484619434 8.212993128858390 16.064369570237801
18.639924470217437 11.525596388869390 2.189014307744804
21.463887141587435 13.506630462729390 9.206208406698803
24.287849812957433 15.487664536589389 16.223402505652803
21.405934798555435 18.800267796600391 2.348047243159804
24.229897469925433 20.781301870460389 9.365241342113803
27.053860141295431 22.762335944320387 16.382435441067802
23.655694302181434 4.375621935229391 2.189014298819804
26.479656973551435 6.356656009089390 9.206208397773803
29.303619644921433 8.337690082949390 16.223402496727804
26.421704630519436 11.650293342960390 2.348047234234804
29.245667301889434 13.631327416820390 9.365241333188804
32.069629973259431 15.612361490680389 16.382435432142803
29.187714958857434 18.924964750691391 2.507080169649804
32.011677630227432 20.905998824551389 9.524274268603804
34.835640301597437 22.887032898411388 16.541468367557801
7.085161499174301 5.279050004498866 1.460903716381156
9.909124170544301 7.260084078358866 8.478097815335156
12.733086841914300 9.241118152218867 15.495291914289155
9.851171827512301 12.553721412229866 1.619936651796156
12.675134498882301 14.534755486089868 8.637130750750156
15.499097170252302 16.515789559949866 15.654324849704155
12.617182155850301 19.828392819960865 1.778969587211156
15.441144827220301 21.809426893820866 8.796163686165155
18.265107498590300 23.790460967680868 15.813357785119155
14.866941659476300 5.403746958589866 1.619936642871156
17.690904330846301 7.384781032449866 8.637130741825155
20.514867002216299 9.365815106309867 15.654324840779154
17.632951987814302 12.678418366320866 1.778969578286156
20.456914659184299 14.659452440180864 8.796163677240155
23.280877330554301 16.640486514040866 15.813357776194154
20.398962316152300 19.953089774051865 1.938002513701156
23.222924987522301 21.934123847911867 8.955196612655156
26.046887658892299 23.915157921771865 15.972390711609155
22.648721819778302 5.528443912680866 1.778969569361156
25.472684491148300 7.509477986540865 8.796163668315156
28.296647162518301 9.490512060400867 15.813357767269155
25.414732148116300 12.803115320411866 1.938002504776156
28.238694819486302 14.784149394271864 8.955196603730155
31.062657490856299 16.765183468131866 15.972390702684155
28.180742476454302 20.077786728142865 2.097035440191156
31.004705147824300 22.058820802002867 9.114229539145155
33.828667819194301 24.039854875862865 16.131423638099154
11.588142070581974 7.706279579901961 7.114048494997077
14.412104741951973 9.687313653761962 14.131242593951075
17.236067413321972 11.668347727621962 21.148436692905076
14.354152398919974 14.980950987632962 7.273081430412077
17.178115070289973 16.961985061492960 14.290275529366077
20.002077741659974 18.943019135352962 21.307469628320078
17.120162727257974 22.255622395363961 7.432114365827077
19.944125398627975 24.236656469223959 14.449308464781076
22.768088069997972 26.217690543083961 21.466502563735077
19.369922230883972 7.830976533992962 7.273081421487077
22.193884902253973 9.812010607852962 14.290275520441076
25.017847573623975 11.793044681712962 21.307469619395075
22.135932559221974 15.105647941723962 7.432114356902076
24.959895230591975 17.086682015583960 14.449308455856077
27.783857901961973 19.067716089443962 21.466502554810077
24.901942887559972 22.380319349454961 7.591147292317077
27.725905558929973 24.361353423314959 14.608341391271075
30.549868230299971 26.342387497174961 21.625535490225076
27.151702391185971 7.955673488083962 7.432114347977077
29.975665062555972 9.936707561943962 14.449308446931077
32.799627733925973 11.917741635803962 21.466502545885078
29.917712719523973 15.230344895814962 7.591147283392076
32.741675390893974 17.211378969674961 14.608341382346076
35.565638062263972 19.192413043534962 21.625535481300076
32.683723047861974 22.505016303545961 7.750180218807077
35.507685719231972 24.486050377405959 14.767374317761076
38.331648390601970 26.467084451265961 21.784568416715075
9.216925606587351 7.847202343682138 2.238558233795609
12.040888277957350 9.828236417542138 9.255752332749609
14.864850949327352 11.809270491402138 16.272946431703609
11.982935934925351 15.121873751413137 2.397591169210609
14.806898606295350 17.102907825273139 9.414785268164609
17.630861277665353 19.083941899133137 16.431979367118608
14.748946263263351 22.396545159144139 2.556624104625609
17.572908934633350 24.377579233004138 9.573818203579609
20.396871606003351 26.358613306864140 16.591012302533610
16.998705766889351 7.971899297773138 2.397591160285609
19.822668438259349 9.952933371633138 9.414785259239608
22.646631109629350 11.933967445493138 16.431979358193608
19.764716095227350 15.246570705504137 2.556624095700609
22.588678766597351 17.227604779364135 9.573818194654608
25.412641437967352 19.208638853224137 16.591012293608607
22.530726423565348 22.521242113235139 2.715657031115609
25.354689094935353 24.502276187095138 9.732851130069609
28.178651766305350 26.483310260955136 16.750045229023609
24.780485927191350 8.096596251864138 2.556624086775609
27.604448598561348 10.077630325724138 9.573818185729609
30.428411269931352 12.058664399584138 16.591012284683607
27.546496255529348 15.371267659595137 2.715657022190609
30.370458926899353 17.352301733455135 9.732851121144609
33.194421598269351 19.333335807315137 16.750045220098610
30.312506583867354 22.645939067326140 2.874689957605609
33.136469255237351 24.626973141186138 9.891884056559608
35.960431926607349 26.608007215046136 16.909078155513608
7.012833677549014 7.510489909206644 2.043164437479764
9.836796348919014 9.491523983066644 9.060358536433764
12.660759020289014 11.472558056926644 16.077552635387764
9.778844005887013 14.785161316937643 2.202197372894764
12.602806677257014 16.766195390797645 9.219391471848764
15.426769348627015 18.747229464657643 16.236585570802763
12.544854334225015 22.059832724668645 2.361230308309764
15.368817005595012 24.040866798528643 9.378424407263763
18.192779676965014 26.021900872388645 16.395618506217765
14.794613837851013 7.635186863297644 2.202197363969764
17.618576509221015 9.616220937157644 9.219391462923763
20.442539180591012 11.597255011017644 16.236585561877764
17.560624166189015 14.909858271028643 2.361230299384764
20.384586837559013 16.890892344888641 9.378424398338764
23.208549508929014 18.871926418748643 16.395618497292762
20.326634494527013 22.184529678759645 2.520263234799764
23.150597165897015 24.165563752619644 9.537457333753764
25.974559837267012 26.146597826479642 16.554651432707765
22.576393998153012 7.759883817388644 2.361230290459764
25.400356669523013 9.740917891248644 9.378424389413764
28.224319340893015 11.721951965108644 16.395618488367763
25.342404326491014 15.034555225119643 2.520263225874764
28.166366997861015 17.015589298979641 9.537457324828763
30.990329669231013 18.996623372839643 16.554651423782765
28.108414654829016 22.309226632850645 2.679296161289764
30.932377326199013 24.290260706710644 9.696490260243763
33.756339997569015 26.271294780570642 16.713684359197764
5.519595585740303 2.830194789058151 2.543097760323147
8.343558257110303 4.811228862918151 9.560291859277147
11.167520928480304 6.792262936778151 16.577485958231147
8.285605914078303 10.104866196789150 2.702130695738147
11.109568585448303 12.085900270649152 9.719324794692147
13.933531256818304 14.066934344509150 16.736518893646146
11.051616242416303 17.379537604520152 2.861163631153147
13.875578913786303 19.360571678380150 9.878357730107147
16.699541585156304 21.341605752240152 16.895551829061148
13.301375746042304 2.954891743149151 2.702130686813147
16.125338417412301 4.935925817009151 9.719324785767146
18.949301088782303 6.916959890869151 16.736518884721146
16.067386074380302 10.229563150880150 2.861163622228147
18.891348745750303 12.210597224740150 9.878357721182146
21.715311417120304 14.191631298600150 16.895551820136145
18.833396402718300 17.504234558611152 3.020196557643147
21.657359074088305 19.485268632471151 10.037390656597147
24.481321745458303 21.466302706331149 17.054584755551147
21.083155906344302 3.079588697240151 2.861163613303147
23.907118577714300 5.060622771100151 9.878357712257147
26.731081249084305 7.041656844960151 16.895551811211146
23.849166234682301 10.354260104971150 3.020196548718147
26.673128906052305 12.335294178831150 10.037390647672147
29.497091577422303 14.316328252691150 17.054584746626148
26.615176563020306 17.628931512702152 3.179229484133147
29.439139234390304 19.609965586562151 10.196423583087146
32.263101905760301 21.590999660422149 17.213617682041146
11.001805422100041 6.545836362797952 3.421140823882451
13.825768093470041 8.526870436657951 10.438334922836450
16.649730764840040 10.507904510517953 17.455529021790451
13.767815750438041 13.820507770528952 3.580173759297451
16.591778421808041 15.801541844388954 10.597367858251451
19.415741093178042 17.782575918248952 17.614561957205449
16.533826078776041 21.095179178259951 3.739206694712451
19.357788750146042 23.076213252119953 10.756400793666451
22.181751421516040 25.057247325979954 17.773594892620451
18.783585582402040 6.670533316888952 3.580173750372451
21.607548253772041 8.651567390748951 10.597367849326451
24.431510925142042 10.632601464608953 17.614561948280450
21.549595910740042 13.945204724619952 3.739206685787451
24.373558582110043 15.926238798479950 10.756400784741450
27.197521253480041 17.907272872339952 17.773594883695448
24.315606239078040 21.219876132350951 3.898239621202451
27.139568910448041 23.200910206210953 10.915433720156450
29.963531581818039 25.181944280070951 17.932627819110451
26.565365742704039 6.795230270979952 3.739206676862451
29.389328414074040 8.776264344839952 10.756400775816450
32.213291085444041 10.757298418699953 17.773594874770449
29.331376071042040 14.069901678710952 3.898239612277451
32.155338742412042 16.050935752570950 10.915433711231451
34.979301413782039 18.031969826430952 17.932627810185451
32.097386399380042 21.344573086441951 4.057272547692451
34.921349070750040 23.325607160301953 11.074466646646451
37.745311742120037 25.306641234161951 18.091660745600450
3.185900838725837 5.269382054496485 1.285384865231277
6.009863510095837 7.250416128356485 8.302578964185276
8.833826181465836 9.231450202216486 15.319773063139277
5.951911167063837 12.544053462227485 1.444417800646277
8.775873838433837 14.525087536087486 8.461611899600276
11.599836509803838 16.506121609947485 15.478805998554277
8.717921495401837 19.818724869958483 1.603450736061277
11.541884166771837 21.799758943818485 8.620644835015277
14.365846838141836 23.780793017678487 15.637838933969277
10.967680999027836 5.394079008587485 1.444417791721277
13.791643670397837 7.375113082447485 8.461611890675277
16.615606341767837 9.356147156307486 15.478805989629276
13.733691327365838 12.668750416318485 1.603450727136277
16.557653998735837 14.649784490178483 8.620644826090276
19.381616670105835 16.630818564038485 15.637838925044276
16.499701655703834 19.943421824049484 1.762483662551277
19.323664327073836 21.924455897909485 8.779677761505276
22.147626998443833 23.905489971769484 15.796871860459277
18.749461159329837 5.518775962678485 1.603450718211277
21.573423830699834 7.499810036538484 8.620644817165276
24.397386502069836 9.480844110398486 15.637838916119277
21.515471487667835 12.793447370409485 1.762483653626277
24.339434159037836 14.774481444269483 8.779677752580277
27.163396830407834 16.755515518129485 15.796871851534277
24.281481816005837 20.068118778140484 1.921516589041277
27.105444487375834 22.049152852000486 8.938710687995277
29.929407158745835 24.030186925860484 15.955904786949276
9.508503931378034 6.044221181321568 3.338263890347901
12.332466602748033 8.025255255181568 10.355457989301900
15.156429274118032 10.006289329041568 17.372652088255901
12.274514259716033 13.318892589052567 3.497296825762901
15.098476931086033 15.299926662912569 10.514490924716901
17.922439602456034 17.280960736772567 17.531685023670899
15.040524588054033 20.593563996783566 3.656329761177901
17.864487259424031 22.574598070643567 10.673523860131901
20.688449930794032 24.555632144503569 17.690717959085902
17.290284091680032 6.168918135412568 3.497296816837901
20.114246763050033 8.149952209272568 10.514490915791901
22.938209434420031 10.130986283132568 17.531685014745900
20.056294420018034 13.443589543143567 3.656329752252901
22.880257091388032 15.424623617003567 10.673523851206900
25.704219762758033 17.405657690863567 17.690717950160899
22.822304748356032 20.718260950874566 3.815362687667901
25.646267419726033 22.699295024734568 10.832556786621900
28.470230091096031 24.680329098594566 17.849750885575901
25.072064251982034 6.293615089503568 3.656329743327901
27.896026923352032 8.274649163363568 10.673523842281901
30.719989594722033 10.255683237223568 17.690717941235899
27.838074580320033 13.568286497234567 3.815362678742901
30.662037251690034 15.549320571094567 10.832556777696901
33.485999923060035 17.530354644954567 17.849750876650901
30.604084908658034 20.842957904965566 3.974395614157901
33.428047580028036 22.823991978825568 10.991589713111901
36.252010251398033 24.805026052685566 18.008783812065900
4.943249566129811 5.767578407955401 4.793981916579614
7.767212237499811 7.748612481815401 11.811176015533613
10.591174908869810 9.729646555675401 18.828370114487612
7.709259894467811 13.042249815686400 4.953014851994614
10.533222565837811 15.023283889546402 11.970208950948614
13.357185237207812 17.004317963406400 18.987403049902614
10.475270222805811 20.316921223417403 5.112047787409614
13.299232894175811 22.297955297277401 12.129241886363612
16.123195565545810 24.278989371137403 19.146435985317613
12.725029726431810 5.892275362046401 4.953014843069614
15.548992397801811 7.873309435906402 11.970208942023614
18.372955069171809 9.854343509766402 18.987403040977611
15.491040054769812 13.166946769777400 5.112047778484613
18.315002726139809 15.147980843637400 12.129241877438613
21.138965397509811 17.129014917497400 19.146435976392613
18.257050383107810 20.441618177508403 5.271080713899614
21.081013054477811 22.422652251368401 12.288274812853613
23.904975725847809 24.403686325228399 19.305468911807612
20.506809886733812 6.016972316137402 5.112047769559614
23.330772558103810 7.998006389997402 12.129241868513613
26.154735229473811 9.979040463857402 19.146435967467614
23.272820215071810 13.291643723868400 5.271080704974613
26.096782886441812 15.272677797728401 12.288274803928612
28.920745557811809 17.253711871588401 19.305468902882613
26.038830543409812 20.566315131599403 5.430113640389614
28.862793214779810 22.547349205459401 12.447307739343614
31.686755886149811 24.528383279319399 19.464501838297611
5.825486565525564 6.820291103866850 2.896890168217060
8.649449236895563 8.801325177726850 9.914084267171059
11.473411908265565 10.782359251586850 16.931278366125060
8.591496893863564 14.094962511597849 3.055923103632060
11.415459565233563 16.075996585457851 10.073117202586060
14.239422236603565 18.057030659317849 17.090311301540059
11.357507222201564 21.369633919328848 3.214956039047060
14.181469893571563 23.350667993188850 10.232150138001060
17.005432564941565 25.331702067048852 17.249344236955061
13.607266725827564 6.944988057957850 3.055923094707060
16.431229397197562 8.926022131817851 10.073117193661059
19.255192068567563 10.907056205677851 17.090311292615059
16.373277054165563 14.219659465688849 3.214956030122060
19.197239725535564 16.200693539548851 10.232150129076059
22.021202396905565 18.181727613408849 17.249344228030058
19.139287382503561 21.494330873419848 3.373988965537060
21.963250053873566 23.475364947279850 10.391183064491059
24.787212725243563 25.456399021139848 17.408377163445060
21.389046886129563 7.069685012048851 3.214956021197060
24.213009557499561 9.050719085908851 10.232150120151060
27.036972228869566 11.031753159768851 17.249344219105058
24.155057214467561 14.344356419779849 3.373988956612060
26.979019885837566 16.325390493639851 10.391183055566060
29.802982557207564 18.306424567499850 17.408377154520061
26.921067542805567 21.619027827510848 3.533021892027060
29.745030214175564 23.600061901370850 10.550215990981059
32.568992885545562 25.581095975230848 17.567410089935059
4.539160453156860 7.257072152200684 4.963634889149937
7.363123124526860 9.238106226060683 11.980828988103937
10.187085795896859 11.219140299920685 18.998023087057938
7.305170781494860 14.531743559931684 5.122667824564937
10.129133452864860 16.512777633791686 12.139861923518936
12.953096124234861 18.493811707651684 19.157056022472936
10.071181109832860 21.806414967662683 5.281700759979937
12.895143781202860 23.787449041522684 12.298894858933936
15.719106452572859 25.768483115382686 19.316088957887935
12.320940613458859 7.381769106291684 5.122667815639937
15.144903284828860 9.362803180151683 12.139861914593936
17.968865956198862 11.343837254011685 19.157056013547937
15.086950941796861 14.656440514022684 5.281700751054936
17.910913613166862 16.637474587882682 12.298894850008935
20.734876284536860 18.618508661742684 19.316088948962935
17.852961270134859 21.931111921753683 5.440733686469937