&GLOBAL
  PRINT_LEVEL LOW
  PROJECT 14_cyclohexanedione_GFN1_gamma_cell_opt
  RUN_TYPE CELL_OPT
&END GLOBAL

&FORCE_EVAL
  METHOD Quickstep
  STRESS_TENSOR ANALYTICAL
  &DFT
    &QS
      EPS_DEFAULT 1.0E-12
      METHOD xTB
      &XTB
        GFN_TYPE TBLITE
        &TBLITE
          METHOD GFN1
          ACCURACY 0.1
        &END TBLITE
      &END XTB
    &END QS
    &SCF
      EPS_SCF 1.0E-9
      MAX_SCF 300
      SCF_GUESS MOPAC
      &MIXING
        METHOD DIRECT_P_MIXING
        ALPHA 0.2
      &END MIXING
    &END SCF
  &END DFT
  &SUBSYS
    &CELL
      PERIODIC XYZ
      A 6.650000000000 0.000000000000 0.000000000000
      B 0.000000000000 6.210000000000 0.000000000000
      C -1.171702277313 0.000000000000 6.769343673750
    &END CELL
    &COORD
      SCALED
      C   0.427300000000  0.174500000000  0.446600000000
      C   0.572700000000  0.674500000000  0.553400000000
      C   0.516800000000  0.174000000000  0.256400000000
      C   0.483200000000  0.674000000000  0.743600000000
      C   0.355900000000  0.222600000000  0.072400000000
      C   0.644100000000  0.722600000000  0.927600000000
      C   0.173200000000  0.077300000000  0.060100000000
      C   0.826800000000  0.577300000000  0.939900000000
      C   0.100300000000  0.029800000000  0.254100000000
      C   0.899700000000  0.529800000000  0.745900000000
      C   0.197900000000  0.177300000000  0.422800000000
      C   0.802100000000  0.677300000000  0.577200000000
      H   0.641000000000  0.287700000000  0.268000000000
      H   0.359000000000  0.787700000000  0.732000000000
      H   0.586000000000  0.013400000000  0.237000000000
      H   0.414000000000  0.513400000000  0.763000000000
      H   0.307000000000  0.387000000000  0.079000000000
      H   0.693000000000  0.887000000000  0.921000000000
      H   0.421000000000  0.205000000000  0.939000000000
      H   0.579000000000  0.705000000000  0.061000000000
      H   0.139000000000  0.861000000000  0.298000000000
      H   0.861000000000  0.361000000000  0.702000000000
      H   0.938000000000  0.036000000000  0.237000000000
      H   0.062000000000  0.536000000000  0.763000000000
      H   0.144000000000  0.337000000000  0.389000000000
      H   0.856000000000  0.837000000000  0.611000000000
      H   0.149000000000  0.127000000000  0.558000000000
      H   0.851000000000  0.627000000000  0.442000000000
      O   0.538400000000  0.172000000000  0.606200000000
      O   0.461600000000  0.672000000000  0.393800000000
      O   0.089800000000  0.000000000000  0.905900000000
      O   0.910200000000  0.500000000000  0.094100000000
    &END COORD
  &END SUBSYS
&END FORCE_EVAL

&MOTION
  &CELL_OPT
    OPTIMIZER BFGS
    MAX_ITER 200
    EXTERNAL_PRESSURE 0.0
  &END CELL_OPT
&END MOTION
