DMC-ICE13 ice XIII; Cartesian 1x1x1 supercell
1.0
8.722397000000001 0.000000000000000 -3.120889000000000
0.000000000000000 7.490364000000000 0.000000000000000
0.000000000000000 0.000000000000000 10.321752999999999
H O
56 28
Cartesian
2.995157738639000 4.823097812148000 2.019743921222000
2.160563904091000 3.689296394196000 2.677807790770000
1.053848727937000 5.362411510512000 1.281120689581000
4.106216668499000 6.823047471240000 2.142473040366999
4.961997205360001 5.615818014996000 2.780589796374000
-0.345799429065000 5.638925787936000 0.641962219029000
2.021284668795000 3.379412545152000 0.258462071909000
2.730947611112000 3.671454347148000 4.993036325127000
1.554584094913000 2.675565511164000 4.778007737807000
2.594040867800000 2.729061690852000 -1.079087382719000
0.695427990413000 0.106385639892000 1.793457333005000
2.777978775736000 1.034816257692000 1.578535126111000
3.324611395726000 0.366518491248000 0.290783684045000
0.402442675183000 1.538580688512000 2.444329371721000
1.366040761361000 1.077915812148000 6.741564578777999
2.200634595909000 -0.055885605804000 6.083500709229999
3.307349772063000 1.617229510512000 7.480187810419000
0.254981831501000 3.077865471240000 6.618835459632999
-0.600798705360000 1.870636014996000 5.980718703626001
4.706997929065001 1.893743787936000 8.119346280971000
2.339913831205000 7.124594545152000 8.502846428091001
1.630250888888000 7.416636347147999 3.768272174873000
2.806614405087000 6.420747511164000 3.983300762193000
1.767157632200000 6.474243690851999 9.840395882718999
3.665770509587000 3.851567639892000 6.967851166995000
1.583219724264000 4.779998257691999 7.182773373889000
1.036587104274000 4.111700491248000 8.470524815955001
3.958755824817001 5.283762688512000 6.316979128279000
5.727239261361000 2.667266187852000 5.181120078777999
6.561833095909001 3.801067605804000 4.523056209229999
7.668548272063001 2.127952489488000 5.919743310419000
4.616180331501000 0.667316528760000 5.058390959632999
3.760399794640001 1.874545985004000 4.420274203626001
9.068196429065001 1.851438212064000 6.558901780971000
6.701112331205000 4.110951454847999 6.942401928091000
5.991449388888000 3.818909652852000 2.207827674873000
7.167821627484000 4.814798488836000 2.422853141304000
6.128356132200000 4.761302309148000 8.279951382718998
8.026969009587001 7.383978360108000 5.407406666995000
5.944418224264001 6.455555232671999 5.622328873889000
5.397785604274000 7.123845508752000 6.910080315955000
8.319954324817001 5.951783311488000 4.756534628279000
7.356356238639001 6.412448187851999 0.459299421222000
6.521762404091000 7.546249605803999 1.117363290770000
5.415047227937000 5.873134489488000 -0.279323810419000
8.467415168499000 4.412498528760000 0.582028540366999
9.323195705360002 5.619727985003999 1.220145296374000
4.015399070935000 5.596620212063999 -0.918492602724000
6.382483168795001 0.365769454848000 -1.301982428091000
7.092146111112001 0.073727652852000 3.432591825127000
5.915773872516001 1.069616488836000 3.217566358696000
6.955239367800001 1.016120309148000 -2.639531882719000
5.056626490413000 3.638796360108000 0.233012833005000
7.139177275736000 2.710373232672000 0.018090626111000
7.685809895726001 3.378663508752000 -1.269660815955000
4.763641175183001 2.206601311488000 0.883884871721000
2.248729892967000 4.190154563784000 1.826023099106999
4.052678595713001 6.007391773824000 2.701260625642000
0.531281201270000 6.066430822871999 0.810683178384000
2.377437583099000 3.006639599964000 4.339869222552999
1.760301828158000 3.009830495028000 -0.624451137580000
3.629110274996000 0.805551196380000 1.129060721865000
1.085458694665000 0.825086065692000 2.353274678502000
2.112468607033000 0.444972563784000 6.935285400892999
0.308519904287000 2.262209773824000 6.060047874358000
3.829917298730000 2.321248822872000 7.950625321615998
1.983760916901000 6.751814109600000 4.421439277447000
2.600896671842000 6.755012495028000 9.385759637580000
0.732088225004000 4.550733196380000 7.632247778135000
3.275739805335001 4.570268065691999 6.408033821497999
6.473667107033000 3.300209436215999 5.374840900892998
4.669718404287001 1.482972226176000 4.499603374358000
8.191115798730001 1.423933177128000 6.390180821615999
6.344959416901000 4.483724400035999 2.860994777447000
6.962095171842000 4.480533504972000 7.825315137579999
5.093286725004001 6.684812803620000 6.071803278134999
7.636938305335001 6.665277934308000 4.847589321497999
6.609928392967001 7.045391436216000 0.265578599107000
8.413877095713000 5.228154226176000 1.140816125642000
4.892479701270001 5.169115177128000 -0.749761321616000
6.738636083099001 0.738542400036000 2.779424722552999
6.121500328158001 0.735351504972000 -2.184895637580000
7.990308774996000 2.939630803620000 -0.431383778135000
5.446657194665001 2.920095934308000 0.792830178502000
