DMC-ICE13 ice XVII; Cartesian 2x2x2 supercell
1.0
6.233506088788000 10.752349190520000 -0.040829816338000
-6.199700069590000 10.773204536568000 -0.058611368388000
-0.017442906500000 0.055293675010000 11.885618629412001
H O
96 48
Cartesian
2.449931621608240 5.647847862745304 1.136540975676218
2.441210168358240 5.675494700250304 7.079350290382219
-0.649918413186760 11.034450131029304 1.107235291482218
-0.658639866436760 11.062096968534306 7.050044606188218
5.566684666002241 11.024022458005305 1.116126067507218
5.557963212752241 11.051669295510305 7.058935382213218
2.466834631207240 16.410624726289306 1.086820383313218
2.458113177957240 16.438271563794306 7.029629698019218
-2.906763441172432 5.097306504470466 3.112551681508873
-2.915484894422432 5.124953341975466 9.055360996214873
-6.006613475967432 10.483908772754466 3.083245997314873
-6.015334929217432 10.511555610259467 9.026055312020873
0.209989603221568 10.473481099730467 3.092136773339873
0.201268149971568 10.501127937235466 9.034946088045874
-2.889860431573432 15.860083368014468 3.062831089145873
-2.898581884823432 15.887730205519468 9.005640403851874
0.252239614525596 0.753547956079230 5.118155151367717
0.243518161275596 0.781194793584230 11.060964466073717
-2.847610420269405 6.140150224363230 5.088849467173717
-2.856331873519405 6.167797061868231 11.031658781879717
3.368992658919596 6.129722551339230 5.097740243198717
3.360271205669596 6.157369388844231 11.040549557904718
0.269142624124595 11.516324819623232 5.068434559004717
0.260421170874595 11.543971657128232 11.011243873710718
2.039085816350638 4.154625516557047 1.532720868226767
2.030364363100638 4.182272354062047 7.475530182932768
-1.060764218444362 9.541227784841048 1.503415184032767
-1.069485671694363 9.568874622346048 7.446224498738768
5.155838860744637 9.530800111817047 1.512305960057768
5.147117407494638 9.558446949322047 7.455115274763767
2.055988825949638 14.917402380101048 1.483000275863767
2.047267372699638 14.945049217606048 7.425809590569767
-1.407600845999569 5.490504049025038 3.502873169000408
-1.416322299249569 5.518150886530038 9.445682483706408
-4.507450880794569 10.877106317309039 3.473567484806408
-4.516172334044570 10.904753154814038 9.416376799512408
1.709152198394431 10.866678644285038 3.482458260831407
1.700430745144431 10.894325481790037 9.425267575537408
-1.390697836400569 16.253280912569039 3.453152576637407
-1.399419289650569 16.280927750074039 9.395961891343408
-0.837843255348038 1.857654470505858 5.501496756265968
-0.846564708598038 1.885301308010858 11.444306070971969
-3.937693290143038 7.244256738789858 5.472191072071968
-3.946414743393039 7.271903576294858 11.415000386777969
2.278909789045962 7.233829065765858 5.481081848096968
2.270188335795962 7.261475903270858 11.423891162802969
-0.820940245749038 12.620431334049860 5.451776163902968
-0.829661698999038 12.648078171554859 11.394585478608969
0.717292078382304 5.824670091825422 2.538224208004126
0.708570625132304 5.852316929330422 8.481033522710128
-2.382557956412696 11.211272360109422 2.508918523810126
-2.391279409662697 11.238919197614422 8.451727838516128
3.834045122776304 11.200844687085421 2.517809299835126
3.825323669526304 11.228491524590423 8.460618614541126
0.734195087981304 16.587446955369423 2.488503615641126
0.725473634731304 16.615093792874422 8.431312930347126
0.923859462426529 8.896542456136281 4.505184581867880
0.915138009176529 8.924189293641280 10.447993896573880
-2.175990572368471 14.283144724420282 4.475878897673880
-2.184712025618472 14.310791561925281 10.418688212379880
4.040612506820529 14.272717051396281 4.484769673698880
4.031891053570528 14.300363888901281 10.427578988404880
0.940762472025529 19.659319319680282 4.455463989504880
0.932041018775529 19.686966157185282 10.398273304210880
-1.826894881295619 7.529512060820658 0.546014179415357
-1.835616334545619 7.557158898325659 6.488823494121357
-4.926744916090620 12.916114329104659 0.516708495221357
-4.935466369340620 12.943761166609658 6.459517809927357
1.289858163098381 12.905686656080658 0.525599271246357
1.281136709848381 12.933333493585659 6.468408585952357
-1.809991871696619 18.292288924364659 0.496293587052357
-1.818713324946619 18.319935761869658 6.439102901758357
-0.663251443061805 7.340277832327126 1.630596766133060
-0.671972896311805 7.367924669832126 7.573406080839060
-3.763101477856805 12.726880100611126 1.601291081939060
-3.771822931106805 12.754526938116125 7.544100396645060
2.453501601332195 12.716452427587125 1.610181857964060
2.444780148082195 12.744099265092126 7.552991172670060
-0.646348433462805 18.103054695871126 1.580876173770060
-0.655069886712805 18.130701533376126 7.523685488476060
0.300564946363625 6.935217472820593 3.614728761766080
0.291843493113625 6.962864310325593 9.557538076472081
-2.799285088431375 12.321819741104594 3.585423077572080
-2.808006541681376 12.349466578609594 9.528232392278081
3.417317990757625 12.311392068080593 3.594313853597080
3.408596537507625 12.339038905585593 9.537123168303081
0.317467955962625 17.697994336364594 3.565008169403080
0.308746502712625 17.725641173869594 9.507817484109081
0.172975151704420 7.988958098801410 5.590652401835019
0.164253698454420 8.016604936306409 11.533461716541019
-2.926874883090580 13.375560367085409 5.561346717641019
-2.935596336340580 13.403207204590410 11.504156032347019
3.289728196098420 13.365132694061410 5.570237493666019
3.281006742848420 13.392779531566411 11.513046808372019
0.189878161303420 18.751734962345409 5.540931809472019
0.181156708053420 18.779381799850412 11.483741124178019
-0.077774671381044 1.323933249602572 5.872738707363856
-0.086496124631044 1.351580087107572 11.815548022069857
-3.177624706176045 6.710535517886573 5.843433023169856
-3.186346159426045 6.738182355391573 11.786242337875857
3.038978373012956 6.700107844862573 5.852323799194856
3.030256919762956 6.727754682367573 11.795133113900857
-0.060871661782044 12.086710113146573 5.823018115000856
-0.069593115032044 12.114356950651572 11.765827429706857
2.121564928382167 5.082768049158548 1.896254253800760
2.112843475132167 5.110414886663548 7.839063568506761
-0.978285106412833 10.469370317442548 1.866948569606760
-0.987006559662833 10.497017154947549 7.809757884312761
5.238317972776168 10.458942644418549 1.875839345631760
5.229596519526167 10.486589481923549 7.818648660337761
2.138467937981167 15.845544912702550 1.846533661437760
2.129746484731167 15.873191750207550 7.789342976143761
-2.252526509351318 5.102269194974025 3.871260113836954
-2.261247962601318 5.129916032479025 9.814069428542954
-5.352376544146318 10.488871463258025 3.841954429642954
-5.361097997396318 10.516518300763025 9.784763744348954
0.864226535042683 10.478443790234024 3.850845205667954
0.855505081792682 10.506090627739026 9.793654520373954
-2.235623499752318 15.865046058518026 3.821539521473954
-2.244344953002318 15.892692896023025 9.764348836179954
-0.059783512296410 6.347952971993556 2.888144789503635
-0.068504965546410 6.375599809498556 8.830954104209635
-3.159633547091410 11.734555240277556 2.858839105309635
-3.168355000341410 11.762202077782558 8.801648420015635
3.056969532097590 11.724127567253557 2.867729881334635
3.048248078847590 11.751774404758557 8.810539196040635
-0.042880502697410 17.110729835537558 2.838424197140635
-0.051601955947410 17.138376673042558 8.781233511846635
0.860131620387450 7.964741187451218 4.862726180546602
0.851410167137450 7.992388024956218 10.805535495252602
-2.239718414407550 13.351343455735218 4.833420496352602
-2.248439867657550 13.378990293240218 10.776229811058602
3.976884664781450 13.340915782711217 4.842311272377602
3.968163211531450 13.368562620216219 10.785120587083602
0.877034629986450 18.727518050995219 4.813005588183602
0.868313176736450 18.755164888500218 10.755814902889602
-0.986837028619828 7.941993938213103 0.898546988891357
-0.995558481869828 7.969640775718103 6.841356303597357
-4.086687063414828 13.328596206497103 0.869241304697357
-4.095408516664828 13.356243044002102 6.812050619403357
2.129916015774172 13.318168533473102 0.878132080722357
2.121194562524172 13.345815370978103 6.820941395428357
-0.969934019020828 18.704770801757103 0.848826396528357
-0.978655472270828 18.732417639262103 6.791635711234357
